%BLOCK LATTICE_CART
       0.000000000000000       2.535000000000000       2.535000000000000
       2.535000000000000      -0.000000000000001       2.535000000000000
       2.535000000000000       2.534999999999999      -0.000000000000000
%ENDBLOCK LATTICE_CART

%BLOCK POSITIONS_FRAC
  O   0.2500000000000001   0.2500000000000000   0.2499999999999999
  O  -0.2499999999999999  -0.2499999999999999   0.7499999999999998
 Zr   0.0000000000000000   0.0000000000000000   0.0000000000000000
%ENDBLOCK POSITIONS_FRAC

%BLOCK SPECTRAL_KPOINT_LIST
   0.4444444444444444   0.4444444444444444   0.4444444444444444       0.010973936899863
   0.4444444444444444   0.4444444444444444   0.3333333333333334       0.032921810699588
   0.4444444444444444   0.4444444444444444   0.2222222222222222       0.032921810699588
   0.4444444444444444   0.4444444444444444   0.1111111111111112       0.032921810699588
   0.4444444444444444   0.4444444444444444   0.0000000000000000       0.008230452674897
   0.4444444444444444   0.4444444444444444  -0.1111111111111111       0.016460905349794
   0.4444444444444444   0.4444444444444444  -0.2222222222222222       0.032921810699588
   0.4444444444444444   0.4444444444444444  -0.3333333333333333       0.032921810699588
   0.4444444444444444   0.4444444444444444  -0.4444444444444444       0.032921810699588
   0.4444444444444444   0.3333333333333334   0.3333333333333334       0.032921810699588
   0.4444444444444444   0.3333333333333334   0.2222222222222222       0.065843621399177
   0.4444444444444444   0.3333333333333334   0.1111111111111112       0.032921810699588
   0.4444444444444444   0.3333333333333334  -0.1111111111111111       0.032921810699588
   0.4444444444444444   0.3333333333333334  -0.2222222222222222       0.032921810699588
   0.4444444444444444   0.3333333333333334  -0.3333333333333333       0.065843621399177
   0.4444444444444444   0.3333333333333334  -0.4444444444444444       0.065843621399177
   0.4444444444444444   0.2222222222222222   0.2222222222222222       0.016460905349794
   0.4444444444444444   0.2222222222222222  -0.1111111111111111       0.065843621399177
   0.4444444444444444   0.2222222222222222  -0.2222222222222222       0.032921810699588
   0.4444444444444444  -0.2222222222222222  -0.2222222222222222       0.032921810699588
   0.4444444444444444  -0.2222222222222222  -0.3333333333333333       0.032921810699588
   0.3333333333333334   0.3333333333333334   0.3333333333333334       0.010973936899863
   0.3333333333333334   0.3333333333333334   0.2222222222222222       0.032921810699588
   0.3333333333333334   0.3333333333333334   0.1111111111111112       0.032921810699588
   0.3333333333333334   0.3333333333333334   0.0000000000000000       0.008230452674897
   0.3333333333333334   0.3333333333333334  -0.3333333333333333       0.016460905349794
   0.3333333333333334   0.2222222222222222   0.2222222222222222       0.032921810699588
   0.3333333333333334   0.2222222222222222   0.1111111111111112       0.032921810699588
   0.2222222222222222   0.2222222222222222   0.2222222222222222       0.010973936899863
   0.2222222222222222   0.2222222222222222   0.1111111111111112       0.032921810699588
   0.2222222222222222   0.2222222222222222   0.0000000000000000       0.008230452674897
   0.2222222222222222   0.1111111111111112   0.1111111111111112       0.016460905349794
   0.1111111111111112   0.1111111111111112   0.1111111111111112       0.010973936899863
   0.1111111111111112   0.1111111111111112   0.0000000000000000       0.008230452674897
   0.0000000000000000   0.0000000000000000   0.0000000000000000       0.001371742112483
%ENDBLOCK SPECTRAL_KPOINT_LIST

%BLOCK KPOINTS_LIST
   0.4444444444444444   0.4444444444444444   0.4444444444444444       0.010973936899863
   0.4444444444444444   0.4444444444444444   0.3333333333333334       0.032921810699588
   0.4444444444444444   0.4444444444444444   0.2222222222222222       0.032921810699588
   0.4444444444444444   0.4444444444444444   0.1111111111111112       0.032921810699588
   0.4444444444444444   0.4444444444444444   0.0000000000000000       0.008230452674897
   0.4444444444444444   0.4444444444444444  -0.1111111111111111       0.016460905349794
   0.4444444444444444   0.4444444444444444  -0.2222222222222222       0.032921810699588
   0.4444444444444444   0.4444444444444444  -0.3333333333333333       0.032921810699588
   0.4444444444444444   0.4444444444444444  -0.4444444444444444       0.032921810699588
   0.4444444444444444   0.3333333333333334   0.3333333333333334       0.032921810699588
   0.4444444444444444   0.3333333333333334   0.2222222222222222       0.065843621399177
   0.4444444444444444   0.3333333333333334   0.1111111111111112       0.032921810699588
   0.4444444444444444   0.3333333333333334  -0.1111111111111111       0.032921810699588
   0.4444444444444444   0.3333333333333334  -0.2222222222222222       0.032921810699588
   0.4444444444444444   0.3333333333333334  -0.3333333333333333       0.065843621399177
   0.4444444444444444   0.3333333333333334  -0.4444444444444444       0.065843621399177
   0.4444444444444444   0.2222222222222222   0.2222222222222222       0.016460905349794
   0.4444444444444444   0.2222222222222222  -0.1111111111111111       0.065843621399177
   0.4444444444444444   0.2222222222222222  -0.2222222222222222       0.032921810699588
   0.4444444444444444  -0.2222222222222222  -0.2222222222222222       0.032921810699588
   0.4444444444444444  -0.2222222222222222  -0.3333333333333333       0.032921810699588
   0.3333333333333334   0.3333333333333334   0.3333333333333334       0.010973936899863
   0.3333333333333334   0.3333333333333334   0.2222222222222222       0.032921810699588
   0.3333333333333334   0.3333333333333334   0.1111111111111112       0.032921810699588
   0.3333333333333334   0.3333333333333334   0.0000000000000000       0.008230452674897
   0.3333333333333334   0.3333333333333334  -0.3333333333333333       0.016460905349794
   0.3333333333333334   0.2222222222222222   0.2222222222222222       0.032921810699588
   0.3333333333333334   0.2222222222222222   0.1111111111111112       0.032921810699588
   0.2222222222222222   0.2222222222222222   0.2222222222222222       0.010973936899863
   0.2222222222222222   0.2222222222222222   0.1111111111111112       0.032921810699588
   0.2222222222222222   0.2222222222222222   0.0000000000000000       0.008230452674897
   0.2222222222222222   0.1111111111111112   0.1111111111111112       0.016460905349794
   0.1111111111111112   0.1111111111111112   0.1111111111111112       0.010973936899863
   0.1111111111111112   0.1111111111111112   0.0000000000000000       0.008230452674897
   0.0000000000000000   0.0000000000000000   0.0000000000000000       0.001371742112483
%ENDBLOCK KPOINTS_LIST

%BLOCK SYMMETRY_OPS
       1.000000000000000       0.000000000000000       0.000000000000000
       0.000000000000000       1.000000000000000       0.000000000000000
       0.000000000000000       0.000000000000000       1.000000000000000
       0.000000000000000       0.000000000000000       0.000000000000000
      -1.000000000000000       0.000000000000000       0.000000000000000
       0.000000000000000      -1.000000000000000      -0.000000000000000
       0.000000000000000      -0.000000000000000       1.000000000000000
       0.000000000000000       0.000000000000000       0.000000000000000
      -1.000000000000000       0.000000000000001      -0.000000000000000
       0.000000000000000       1.000000000000000      -0.000000000000000
       0.000000000000000       0.000000000000000      -1.000000000000000
       0.000000000000000       0.000000000000000       0.000000000000000
       1.000000000000000      -0.000000000000001      -0.000000000000000
       0.000000000000000      -1.000000000000000       0.000000000000000
       0.000000000000000      -0.000000000000000      -1.000000000000000
       0.000000000000000       0.000000000000000       0.000000000000000
       0.000000000000000       1.000000000000000       0.000000000000000
       0.000000000000000       0.000000000000000       1.000000000000000
       1.000000000000000      -0.000000000000000      -0.000000000000000
       0.000000000000000       0.000000000000000       0.000000000000000
       0.000000000000000      -1.000000000000000      -0.000000000000000
       0.000000000000000      -0.000000000000000      -1.000000000000000
       1.000000000000000      -0.000000000000000      -0.000000000000000
       0.000000000000000       0.000000000000000       0.000000000000000
      -0.000000000000000      -1.000000000000000       0.000000000000000
       0.000000000000000      -0.000000000000000       1.000000000000000
      -1.000000000000000       0.000000000000000       0.000000000000000
       0.000000000000000       0.000000000000000       0.000000000000000
      -0.000000000000000       1.000000000000000      -0.000000000000000
       0.000000000000000       0.000000000000000      -1.000000000000000
      -1.000000000000000       0.000000000000000       0.000000000000000
       0.000000000000000       0.000000000000000       0.000000000000000
       0.000000000000000       0.000000000000000       1.000000000000000
       1.000000000000000      -0.000000000000000      -0.000000000000000
       0.000000000000000       1.000000000000000       0.000000000000000
       0.000000000000000       0.000000000000000       0.000000000000000
      -0.000000000000000       0.000000000000000      -1.000000000000000
      -1.000000000000000       0.000000000000000       0.000000000000000
       0.000000000000000       1.000000000000000       0.000000000000000
       0.000000000000000       0.000000000000000       0.000000000000000
       0.000000000000000      -0.000000000000000      -1.000000000000000
       1.000000000000000      -0.000000000000000      -0.000000000000000
       0.000000000000000      -1.000000000000000       0.000000000000000
       0.000000000000000       0.000000000000000       0.000000000000000
      -0.000000000000000      -0.000000000000000       1.000000000000000
      -1.000000000000000       0.000000000000000       0.000000000000000
       0.000000000000000      -1.000000000000000       0.000000000000000
       0.000000000000000       0.000000000000000       0.000000000000000
       0.000000000000000       1.000000000000000      -0.000000000000000
       1.000000000000000      -0.000000000000000      -0.000000000000000
       0.000000000000000       0.000000000000000      -1.000000000000000
       0.000000000000000       0.000000000000000       0.000000000000000
      -0.000000000000000      -1.000000000000000      -0.000000000000000
      -1.000000000000000       0.000000000000000       0.000000000000000
       0.000000000000000      -0.000000000000000      -1.000000000000000
       0.000000000000000       0.000000000000000       0.000000000000000
       0.000000000000000      -1.000000000000000       0.000000000000000
       1.000000000000000      -0.000000000000000      -0.000000000000000
       0.000000000000000      -0.000000000000000       1.000000000000000
       0.000000000000000       0.000000000000000       0.000000000000000
      -0.000000000000000       1.000000000000000       0.000000000000000
      -1.000000000000000       0.000000000000000       0.000000000000000
       0.000000000000000       0.000000000000000       1.000000000000000
       0.000000000000000       0.000000000000000       0.000000000000000
       1.000000000000000      -0.000000000000000      -0.000000000000001
       0.000000000000000       0.000000000000000      -1.000000000000000
       0.000000000000000       1.000000000000000       0.000000000000000
       0.000000000000000       0.000000000000000       0.000000000000000
      -1.000000000000000       0.000000000000001       0.000000000000001
       0.000000000000000       0.000000000000000       1.000000000000000
       0.000000000000000       1.000000000000000       0.000000000000000
       0.000000000000000       0.000000000000000       0.000000000000000
      -1.000000000000000       0.000000000000000      -0.000000000000000
       0.000000000000000      -0.000000000000000      -1.000000000000000
       0.000000000000000      -1.000000000000000       0.000000000000000
       0.000000000000000       0.000000000000000       0.000000000000000
       1.000000000000000      -0.000000000000001       0.000000000000000
       0.000000000000000      -0.000000000000000       1.000000000000000
       0.000000000000000      -1.000000000000000       0.000000000000000
       0.000000000000000       0.000000000000000       0.000000000000000
       0.000000000000000       0.000000000000000      -1.000000000000000
       0.000000000000000       1.000000000000000       0.000000000000000
       1.000000000000000      -0.000000000000000      -0.000000000000000
       0.000000000000000       0.000000000000000       0.000000000000000
       0.000000000000000      -0.000000000000000       1.000000000000000
       0.000000000000000      -1.000000000000000       0.000000000000000
       1.000000000000000      -0.000000000000000      -0.000000000000000
       0.000000000000000       0.000000000000000       0.000000000000000
      -0.000000000000000       0.000000000000000       1.000000000000000
       0.000000000000000       1.000000000000000       0.000000000000000
      -1.000000000000000       0.000000000000000       0.000000000000000
       0.000000000000000       0.000000000000000       0.000000000000000
      -0.000000000000000      -0.000000000000000      -1.000000000000000
       0.000000000000000      -1.000000000000000       0.000000000000000
      -1.000000000000000       0.000000000000000       0.000000000000000
       0.000000000000000       0.000000000000000       0.000000000000000
      -1.000000000000000       0.000000000000000      -0.000000000000000
       0.000000000000000      -1.000000000000000      -0.000000000000000
       0.000000000000000      -0.000000000000000      -1.000000000000000
       0.000000000000000       0.000000000000000       0.000000000000000
       1.000000000000000       0.000000000000000      -0.000000000000000
       0.000000000000000       1.000000000000000       0.000000000000000
       0.000000000000000       0.000000000000000      -1.000000000000000
       0.000000000000000       0.000000000000000       0.000000000000000
       1.000000000000000      -0.000000000000001       0.000000000000000
       0.000000000000000      -1.000000000000000       0.000000000000000
       0.000000000000000      -0.000000000000000       1.000000000000000
       0.000000000000000       0.000000000000000       0.000000000000000
      -1.000000000000000       0.000000000000001       0.000000000000000
       0.000000000000000       1.000000000000000      -0.000000000000000
       0.000000000000000       0.000000000000000       1.000000000000000
       0.000000000000000       0.000000000000000       0.000000000000000
      -0.000000000000000      -1.000000000000000      -0.000000000000000
       0.000000000000000      -0.000000000000000      -1.000000000000000
      -1.000000000000000       0.000000000000000       0.000000000000000
       0.000000000000000       0.000000000000000       0.000000000000000
      -0.000000000000000       1.000000000000000       0.000000000000000
       0.000000000000000       0.000000000000000       1.000000000000000
      -1.000000000000000       0.000000000000000       0.000000000000000
       0.000000000000000       0.000000000000000       0.000000000000000
       0.000000000000000       1.000000000000000      -0.000000000000000
       0.000000000000000       0.000000000000000      -1.000000000000000
       1.000000000000000      -0.000000000000000      -0.000000000000000
       0.000000000000000       0.000000000000000       0.000000000000000
       0.000000000000000      -1.000000000000000       0.000000000000000
       0.000000000000000      -0.000000000000000       1.000000000000000
       1.000000000000000      -0.000000000000000      -0.000000000000000
       0.000000000000000       0.000000000000000       0.000000000000000
      -0.000000000000000      -0.000000000000000      -1.000000000000000
      -1.000000000000000       0.000000000000000       0.000000000000000
       0.000000000000000      -1.000000000000000       0.000000000000000
       0.000000000000000       0.000000000000000       0.000000000000000
       0.000000000000000      -0.000000000000000       1.000000000000000
       1.000000000000000      -0.000000000000000      -0.000000000000000
       0.000000000000000      -1.000000000000000       0.000000000000000
       0.000000000000000       0.000000000000000       0.000000000000000
      -0.000000000000000       0.000000000000000       1.000000000000000
      -1.000000000000000       0.000000000000000       0.000000000000000
       0.000000000000000       1.000000000000000       0.000000000000000
       0.000000000000000       0.000000000000000       0.000000000000000
       0.000000000000000       0.000000000000000      -1.000000000000000
       1.000000000000000      -0.000000000000000      -0.000000000000000
       0.000000000000000       1.000000000000000       0.000000000000000
       0.000000000000000       0.000000000000000       0.000000000000000
      -0.000000000000000      -1.000000000000000       0.000000000000000
      -1.000000000000000       0.000000000000000       0.000000000000000
       0.000000000000000      -0.000000000000000       1.000000000000000
       0.000000000000000       0.000000000000000       0.000000000000000
       0.000000000000000       1.000000000000000       0.000000000000000
       1.000000000000000      -0.000000000000000      -0.000000000000000
       0.000000000000000       0.000000000000000       1.000000000000000
       0.000000000000000       0.000000000000000       0.000000000000000
      -0.000000000000000       1.000000000000000      -0.000000000000000
      -1.000000000000000       0.000000000000000       0.000000000000000
       0.000000000000000       0.000000000000000      -1.000000000000000
       0.000000000000000       0.000000000000000       0.000000000000000
       0.000000000000000      -1.000000000000000      -0.000000000000000
       1.000000000000000      -0.000000000000000      -0.000000000000000
       0.000000000000000      -0.000000000000000      -1.000000000000000
       0.000000000000000       0.000000000000000       0.000000000000000
      -1.000000000000000       0.000000000000000       0.000000000000001
       0.000000000000000      -0.000000000000000       1.000000000000000
       0.000000000000000      -1.000000000000000       0.000000000000000
       0.000000000000000       0.000000000000000       0.000000000000000
       1.000000000000000      -0.000000000000001      -0.000000000000001
       0.000000000000000      -0.000000000000000      -1.000000000000000
       0.000000000000000      -1.000000000000000       0.000000000000000
       0.000000000000000       0.000000000000000       0.000000000000000
       1.000000000000000      -0.000000000000000       0.000000000000000
       0.000000000000000       0.000000000000000       1.000000000000000
       0.000000000000000       1.000000000000000       0.000000000000000
       0.000000000000000       0.000000000000000       0.000000000000000
      -1.000000000000000       0.000000000000001      -0.000000000000000
       0.000000000000000       0.000000000000000      -1.000000000000000
       0.000000000000000       1.000000000000000       0.000000000000000
       0.000000000000000       0.000000000000000       0.000000000000000
      -0.000000000000000      -0.000000000000000       1.000000000000000
       0.000000000000000      -1.000000000000000       0.000000000000000
      -1.000000000000000       0.000000000000000       0.000000000000000
       0.000000000000000       0.000000000000000       0.000000000000000
      -0.000000000000000       0.000000000000000      -1.000000000000000
       0.000000000000000       1.000000000000000       0.000000000000000
      -1.000000000000000       0.000000000000000       0.000000000000000
       0.000000000000000       0.000000000000000       0.000000000000000
       0.000000000000000      -0.000000000000000      -1.000000000000000
       0.000000000000000      -1.000000000000000       0.000000000000000
       1.000000000000000      -0.000000000000000      -0.000000000000000
       0.000000000000000       0.000000000000000       0.000000000000000
       0.000000000000000       0.000000000000000       1.000000000000000
       0.000000000000000       1.000000000000000       0.000000000000000
       1.000000000000000      -0.000000000000000      -0.000000000000000
       0.000000000000000       0.000000000000000       0.000000000000000
%ENDBLOCK SYMMETRY_OPS

FIX_COM : false
%BLOCK IONIC_CONSTRAINTS
%ENDBLOCK IONIC_CONSTRAINTS

%BLOCK EXTERNAL_EFIELD
    0.0000000000     0.0000000000     0.0000000000 
%ENDBLOCK EXTERNAL_EFIELD

%BLOCK EXTERNAL_PRESSURE
    0.0000000000    0.0000000000    0.0000000000
                    0.0000000000    0.0000000000
                                    0.0000000000
%ENDBLOCK EXTERNAL_PRESSURE

%BLOCK SPECIES_MASS
       O     15.9989995956
      Zr     91.2200012207
%ENDBLOCK SPECIES_MASS

%BLOCK SPECIES_POT
       O  2|1.1|14|18|21|20UU:21UU(qc=7)[]
      Zr  3|2.1|7|8.5|10|40U:50UU:41UU:42UU[]
%ENDBLOCK SPECIES_POT

%BLOCK SPECIES_LCAO_STATES
       O         2
      Zr         5
%ENDBLOCK SPECIES_LCAO_STATES

