%BLOCK LATTICE_CART
      -0.000000000000000       1.762000000000000       1.762000000000000
       1.762000000000000      -0.000000000000001       1.762000000000000
       1.762000000000000       1.761999999999999      -0.000000000000000
%ENDBLOCK LATTICE_CART

%BLOCK POSITIONS_FRAC
 Ni   0.0000000000000000   0.0000000000000000   0.0000000000000000
%ENDBLOCK POSITIONS_FRAC

%BLOCK KPOINTS_LIST
   0.4285714285714286   0.4285714285714286   0.4285714285714286       0.023323615160350
   0.4285714285714286   0.4285714285714286   0.2857142857142858       0.069970845481050
   0.4285714285714286   0.4285714285714286   0.1428571428571429       0.069970845481050
   0.4285714285714286   0.4285714285714286   0.0000000000000000       0.017492711370262
   0.4285714285714286   0.4285714285714286  -0.1428571428571429       0.034985422740525
   0.4285714285714286   0.4285714285714286  -0.2857142857142857       0.069970845481050
   0.4285714285714286   0.4285714285714286  -0.4285714285714286       0.069970845481050
   0.4285714285714286   0.2857142857142858   0.2857142857142858       0.069970845481050
   0.4285714285714286   0.2857142857142858   0.1428571428571429       0.069970845481050
   0.4285714285714286   0.2857142857142858  -0.1428571428571429       0.069970845481050
   0.4285714285714286   0.2857142857142858  -0.2857142857142857       0.069970845481050
   0.4285714285714286   0.2857142857142858  -0.4285714285714286       0.139941690962099
   0.4285714285714286  -0.2857142857142857  -0.2857142857142857       0.034985422740525
   0.2857142857142858   0.2857142857142858   0.2857142857142858       0.023323615160350
   0.2857142857142858   0.2857142857142858   0.1428571428571429       0.069970845481050
   0.2857142857142858   0.2857142857142858   0.0000000000000000       0.017492711370262
   0.2857142857142858   0.1428571428571429   0.1428571428571429       0.034985422740525
   0.1428571428571429   0.1428571428571429   0.1428571428571429       0.023323615160350
   0.1428571428571429   0.1428571428571429   0.0000000000000000       0.017492711370262
   0.0000000000000000   0.0000000000000000   0.0000000000000000       0.002915451895044
%ENDBLOCK KPOINTS_LIST

%BLOCK SYMMETRY_OPS
       1.000000000000000       0.000000000000000      -0.000000000000000
       0.000000000000000       1.000000000000000      -0.000000000000000
       0.000000000000000       0.000000000000000       1.000000000000000
       0.000000000000000       0.000000000000000       0.000000000000000
      -1.000000000000000       0.000000000000000       0.000000000000000
      -0.000000000000000      -1.000000000000000      -0.000000000000000
      -0.000000000000000      -0.000000000000000       1.000000000000000
       0.000000000000000       0.000000000000000       0.000000000000000
      -1.000000000000000       0.000000000000001       0.000000000000000
      -0.000000000000000       1.000000000000000       0.000000000000000
      -0.000000000000000       0.000000000000000      -1.000000000000000
       0.000000000000000       0.000000000000000       0.000000000000000
       1.000000000000000      -0.000000000000001      -0.000000000000000
       0.000000000000000      -1.000000000000000       0.000000000000000
       0.000000000000000      -0.000000000000000      -1.000000000000000
       0.000000000000000       0.000000000000000       0.000000000000000
      -0.000000000000000       1.000000000000000       0.000000000000000
      -0.000000000000000       0.000000000000000       1.000000000000000
       1.000000000000000      -0.000000000000000      -0.000000000000000
       0.000000000000000       0.000000000000000       0.000000000000000
       0.000000000000000      -1.000000000000000      -0.000000000000000
      -0.000000000000000      -0.000000000000000      -1.000000000000000
       1.000000000000000      -0.000000000000000      -0.000000000000000
       0.000000000000000       0.000000000000000       0.000000000000000
       0.000000000000000      -1.000000000000000       0.000000000000000
       0.000000000000000      -0.000000000000000       1.000000000000000
      -1.000000000000000       0.000000000000000       0.000000000000000
       0.000000000000000       0.000000000000000       0.000000000000000
       0.000000000000000       1.000000000000000      -0.000000000000000
       0.000000000000000       0.000000000000000      -1.000000000000000
      -1.000000000000000       0.000000000000000       0.000000000000000
       0.000000000000000       0.000000000000000       0.000000000000000
       0.000000000000000       0.000000000000000       1.000000000000000
       1.000000000000000      -0.000000000000001      -0.000000000000000
      -0.000000000000000       1.000000000000000       0.000000000000000
       0.000000000000000       0.000000000000000       0.000000000000000
      -0.000000000000000       0.000000000000000      -1.000000000000000
      -1.000000000000000       0.000000000000000       0.000000000000000
       0.000000000000000       1.000000000000000      -0.000000000000000
       0.000000000000000       0.000000000000000       0.000000000000000
       0.000000000000000      -0.000000000000000      -1.000000000000000
       1.000000000000000      -0.000000000000000      -0.000000000000000
       0.000000000000000      -1.000000000000000      -0.000000000000000
       0.000000000000000       0.000000000000000       0.000000000000000
      -0.000000000000000       0.000000000000000       1.000000000000000
      -1.000000000000000       0.000000000000001       0.000000000000000
       0.000000000000000      -1.000000000000000       0.000000000000000
       0.000000000000000       0.000000000000000       0.000000000000000
       0.000000000000000       1.000000000000000      -0.000000000000000
       1.000000000000000      -0.000000000000000       0.000000000000000
       0.000000000000000       0.000000000000000      -1.000000000000000
       0.000000000000000       0.000000000000000       0.000000000000000
      -0.000000000000000      -1.000000000000000       0.000000000000000
      -1.000000000000000       0.000000000000000       0.000000000000000
       0.000000000000000      -0.000000000000000      -1.000000000000000
       0.000000000000000       0.000000000000000       0.000000000000000
       0.000000000000000      -1.000000000000000      -0.000000000000000
       1.000000000000000      -0.000000000000000      -0.000000000000000
       0.000000000000000      -0.000000000000000       1.000000000000000
       0.000000000000000       0.000000000000000       0.000000000000000
      -0.000000000000000       1.000000000000000       0.000000000000000
      -1.000000000000000       0.000000000000000      -0.000000000000000
      -0.000000000000000       0.000000000000000       1.000000000000000
       0.000000000000000       0.000000000000000       0.000000000000000
       1.000000000000000      -0.000000000000000      -0.000000000000000
       0.000000000000000      -0.000000000000000      -1.000000000000000
       0.000000000000000       1.000000000000000      -0.000000000000000
       0.000000000000000       0.000000000000000       0.000000000000000
      -1.000000000000000       0.000000000000000       0.000000000000000
      -0.000000000000000      -0.000000000000000       1.000000000000000
      -0.000000000000000       1.000000000000000       0.000000000000000
       0.000000000000000       0.000000000000000       0.000000000000000
      -1.000000000000000       0.000000000000000      -0.000000000000000
       0.000000000000000       0.000000000000000      -1.000000000000000
       0.000000000000000      -1.000000000000000       0.000000000000000
       0.000000000000000       0.000000000000000       0.000000000000000
       1.000000000000000      -0.000000000000000       0.000000000000000
       0.000000000000000       0.000000000000000       1.000000000000000
       0.000000000000000      -1.000000000000000       0.000000000000000
       0.000000000000000       0.000000000000000       0.000000000000000
       0.000000000000000       0.000000000000000      -1.000000000000000
      -0.000000000000000       1.000000000000000      -0.000000000000000
       1.000000000000000      -0.000000000000000      -0.000000000000000
       0.000000000000000       0.000000000000000       0.000000000000000
       0.000000000000000      -0.000000000000000       1.000000000000000
      -0.000000000000000      -1.000000000000000       0.000000000000000
       1.000000000000000      -0.000000000000000      -0.000000000000000
       0.000000000000000       0.000000000000000       0.000000000000000
      -0.000000000000000       0.000000000000000       1.000000000000000
       0.000000000000000       1.000000000000000       0.000000000000000
      -1.000000000000000       0.000000000000000       0.000000000000000
       0.000000000000000       0.000000000000000       0.000000000000000
       0.000000000000000      -0.000000000000000      -1.000000000000000
       0.000000000000000      -1.000000000000000      -0.000000000000000
      -1.000000000000000       0.000000000000000       0.000000000000000
       0.000000000000000       0.000000000000000       0.000000000000000
      -1.000000000000000       0.000000000000000       0.000000000000000
       0.000000000000000      -1.000000000000000       0.000000000000000
       0.000000000000000      -0.000000000000000      -1.000000000000000
       0.000000000000000       0.000000000000000       0.000000000000000
       1.000000000000000      -0.000000000000000      -0.000000000000000
       0.000000000000000       1.000000000000000       0.000000000000000
       0.000000000000000       0.000000000000000      -1.000000000000000
       0.000000000000000       0.000000000000000       0.000000000000000
       1.000000000000000      -0.000000000000001      -0.000000000000000
       0.000000000000000      -1.000000000000000      -0.000000000000000
       0.000000000000000       0.000000000000000       1.000000000000000
       0.000000000000000       0.000000000000000       0.000000000000000
      -1.000000000000000       0.000000000000001       0.000000000000000
      -0.000000000000000       1.000000000000000      -0.000000000000000
      -0.000000000000000       0.000000000000000       1.000000000000000
       0.000000000000000       0.000000000000000       0.000000000000000
       0.000000000000000      -1.000000000000000      -0.000000000000000
       0.000000000000000      -0.000000000000000      -1.000000000000000
      -1.000000000000000       0.000000000000000       0.000000000000000
       0.000000000000000       0.000000000000000       0.000000000000000
      -0.000000000000000       1.000000000000000       0.000000000000000
       0.000000000000000       0.000000000000000       1.000000000000000
      -1.000000000000000       0.000000000000000       0.000000000000000
       0.000000000000000       0.000000000000000       0.000000000000000
       0.000000000000000       1.000000000000000      -0.000000000000000
      -0.000000000000000       0.000000000000000      -1.000000000000000
       1.000000000000000      -0.000000000000000      -0.000000000000000
       0.000000000000000       0.000000000000000       0.000000000000000
       0.000000000000000      -1.000000000000000       0.000000000000000
      -0.000000000000000      -0.000000000000000       1.000000000000000
       1.000000000000000      -0.000000000000000      -0.000000000000000
       0.000000000000000       0.000000000000000       0.000000000000000
      -0.000000000000000      -0.000000000000000      -1.000000000000000
      -1.000000000000000       0.000000000000001       0.000000000000000
       0.000000000000000      -1.000000000000000      -0.000000000000000
       0.000000000000000       0.000000000000000       0.000000000000000
       0.000000000000000      -0.000000000000000       1.000000000000000
       1.000000000000000      -0.000000000000000      -0.000000000000000
       0.000000000000000      -1.000000000000000       0.000000000000000
       0.000000000000000       0.000000000000000       0.000000000000000
      -0.000000000000000       0.000000000000000       1.000000000000000
      -1.000000000000000       0.000000000000000       0.000000000000000
      -0.000000000000000       1.000000000000000       0.000000000000000
       0.000000000000000       0.000000000000000       0.000000000000000
       0.000000000000000      -0.000000000000000      -1.000000000000000
       1.000000000000000      -0.000000000000001      -0.000000000000000
       0.000000000000000       1.000000000000000      -0.000000000000000
       0.000000000000000       0.000000000000000       0.000000000000000
      -0.000000000000000      -1.000000000000000       0.000000000000000
      -1.000000000000000       0.000000000000000      -0.000000000000000
       0.000000000000000      -0.000000000000000       1.000000000000000
       0.000000000000000       0.000000000000000       0.000000000000000
       0.000000000000000       1.000000000000000      -0.000000000000000
       1.000000000000000      -0.000000000000000      -0.000000000000000
      -0.000000000000000       0.000000000000000       1.000000000000000
       0.000000000000000       0.000000000000000       0.000000000000000
      -0.000000000000000       1.000000000000000       0.000000000000000
      -1.000000000000000       0.000000000000000       0.000000000000000
       0.000000000000000       0.000000000000000      -1.000000000000000
       0.000000000000000       0.000000000000000       0.000000000000000
       0.000000000000000      -1.000000000000000      -0.000000000000000
       1.000000000000000      -0.000000000000000       0.000000000000000
       0.000000000000000      -0.000000000000000      -1.000000000000000
       0.000000000000000       0.000000000000000       0.000000000000000
      -1.000000000000000       0.000000000000000       0.000000000000000
      -0.000000000000000       0.000000000000000       1.000000000000000
      -0.000000000000000      -1.000000000000000       0.000000000000000
       0.000000000000000       0.000000000000000       0.000000000000000
       1.000000000000000      -0.000000000000000      -0.000000000000000
       0.000000000000000       0.000000000000000      -1.000000000000000
       0.000000000000000      -1.000000000000000      -0.000000000000000
       0.000000000000000       0.000000000000000       0.000000000000000
       1.000000000000000      -0.000000000000000       0.000000000000000
       0.000000000000000      -0.000000000000000       1.000000000000000
       0.000000000000000       1.000000000000000       0.000000000000000
       0.000000000000000       0.000000000000000       0.000000000000000
      -1.000000000000000       0.000000000000000      -0.000000000000000
      -0.000000000000000      -0.000000000000000      -1.000000000000000
      -0.000000000000000       1.000000000000000       0.000000000000000
       0.000000000000000       0.000000000000000       0.000000000000000
       0.000000000000000      -0.000000000000000       1.000000000000000
       0.000000000000000      -1.000000000000000       0.000000000000000
      -1.000000000000000       0.000000000000000       0.000000000000000
       0.000000000000000       0.000000000000000       0.000000000000000
       0.000000000000000       0.000000000000000      -1.000000000000000
       0.000000000000000       1.000000000000000      -0.000000000000000
      -1.000000000000000       0.000000000000000       0.000000000000000
       0.000000000000000       0.000000000000000       0.000000000000000
       0.000000000000000      -0.000000000000000      -1.000000000000000
      -0.000000000000000      -1.000000000000000      -0.000000000000000
       1.000000000000000      -0.000000000000000      -0.000000000000000
       0.000000000000000       0.000000000000000       0.000000000000000
      -0.000000000000000       0.000000000000000       1.000000000000000
      -0.000000000000000       1.000000000000000       0.000000000000000
       1.000000000000000      -0.000000000000000      -0.000000000000000
       0.000000000000000       0.000000000000000       0.000000000000000
%ENDBLOCK SYMMETRY_OPS

FIX_COM : false
%BLOCK IONIC_CONSTRAINTS
%ENDBLOCK IONIC_CONSTRAINTS

%BLOCK EXTERNAL_EFIELD
    0.0000000000     0.0000000000     0.0000000000 
%ENDBLOCK EXTERNAL_EFIELD

%BLOCK EXTERNAL_PRESSURE
    0.0000000000    0.0000000000    0.0000000000
                    0.0000000000    0.0000000000
                                    0.0000000000
%ENDBLOCK EXTERNAL_PRESSURE

%BLOCK SPECIES_MASS
      Ni     58.7099990845
%ENDBLOCK SPECIES_MASS

%BLOCK SPECIES_POT
      Ni  3|2.2|2|1|10|12.1|14.7|40UU:41UU:32UU(qc=6)[]
%ENDBLOCK SPECIES_POT

%BLOCK SPECIES_LCAO_STATES
      Ni         3
%ENDBLOCK SPECIES_LCAO_STATES

