%BLOCK LATTICE_CART
      10.000000000000000       0.000000000000000       0.000000000000000
       0.000000000000000      10.000000000000000       0.000000000000000
       0.000000000000000       0.000000000000000      10.000000000000000
%ENDBLOCK LATTICE_CART

%BLOCK POSITIONS_FRAC
  C   0.0000000000000000   0.0000000000000000   0.0000000000000000
  O   0.0000000000000000   0.0000000000000000   0.1128299951553345
%ENDBLOCK POSITIONS_FRAC

%BLOCK KPOINTS_LIST
   0.0000000000000000   0.0000000000000000   0.0000000000000000       1.000000000000000
%ENDBLOCK KPOINTS_LIST

FIX_ALL_CELL : true

FIX_COM : false
%BLOCK IONIC_CONSTRAINTS
%ENDBLOCK IONIC_CONSTRAINTS

%BLOCK EXTERNAL_EFIELD
    0.0000000000     0.0000000000     0.0000000000 
%ENDBLOCK EXTERNAL_EFIELD

%BLOCK EXTERNAL_PRESSURE
    0.0000000000    0.0000000000    0.0000000000
                    0.0000000000    0.0000000000
                                    0.0000000000
%ENDBLOCK EXTERNAL_PRESSURE

%BLOCK SPECIES_MASS
       C     12.0109996796
       O     15.9989995956
%ENDBLOCK SPECIES_MASS

%BLOCK SPECIES_POT
       C  2|1.4|11|12|14.7|20UU:21UU(qc=7)[]
       O  2|1.1|14|18|21|20UU:21UU(qc=7)[]
%ENDBLOCK SPECIES_POT

%BLOCK SPECIES_LCAO_STATES
       C         2
       O         2
%ENDBLOCK SPECIES_LCAO_STATES

