%BLOCK LATTICE_CART
      -0.000000000000000       1.817817250406401       1.817817250406401
       1.818362432027037       0.000545181620636       1.817272068785765
       1.818362432027037       1.817272068785766       0.000545181620635
%ENDBLOCK LATTICE_CART

%BLOCK POSITIONS_FRAC
  B   0.0000000000000000   0.0000000000000000   0.0000000000000000
  N  -0.2500000000000001   0.7499999999999999  -0.2500000000000000
%ENDBLOCK POSITIONS_FRAC

%BLOCK SYMMETRY_OPS
       1.000000000000000       0.000000000000000      -0.000000000000000
       0.000000000000000       1.000000000000000       0.000000000000000
       0.000000000000000      -0.000000000000000       1.000000000000000
       0.000000000000000       0.000000000000000       0.000000000000000
       1.000000000000000      -0.000000000000000      -0.000000000000001
       0.000000000000000      -1.000000000000000      -0.000000000000000
       0.000000000000000       0.000000000000000      -1.000000000000000
       0.000000000000000       0.000000000000000       0.000000000000000
       1.000000000000000       0.000000000000000      -0.000000000000000
       0.000000000000000      -0.000000000000000       1.000000000000000
       0.000000000000000       1.000000000000000       0.000000000000000
       0.000000000000000       0.000000000000000       0.000000000000000
       1.000000000000000      -0.000000000000000      -0.000000000000000
       0.000000000000000       0.000000000000000      -1.000000000000000
       0.000000000000000      -1.000000000000000      -0.000000000000000
       0.000000000000000       0.000000000000000       0.000000000000000
%ENDBLOCK SYMMETRY_OPS

%BLOCK KPOINTS_LIST
   0.4285714285714286   0.4285714285714286   0.4285714285714286       0.011661807580175
   0.4285714285714286   0.4285714285714286   0.2857142857142858       0.023323615160350
   0.4285714285714286   0.4285714285714286   0.1428571428571429       0.023323615160350
   0.4285714285714286   0.4285714285714286   0.0000000000000000       0.011661807580175
   0.4285714285714286   0.4285714285714286  -0.1428571428571429       0.023323615160350
   0.4285714285714286   0.4285714285714286  -0.2857142857142857       0.023323615160350
   0.4285714285714286   0.4285714285714286  -0.4285714285714286       0.023323615160350
   0.4285714285714286   0.2857142857142858   0.2857142857142858       0.011661807580175
   0.4285714285714286   0.2857142857142858   0.1428571428571429       0.011661807580175
   0.4285714285714286   0.2857142857142858  -0.1428571428571429       0.023323615160350
   0.4285714285714286   0.2857142857142858  -0.2857142857142857       0.023323615160350
   0.4285714285714286   0.2857142857142858  -0.4285714285714286       0.023323615160350
   0.4285714285714286  -0.1428571428571429  -0.1428571428571429       0.011661807580175
   0.4285714285714286  -0.1428571428571429  -0.2857142857142857       0.023323615160350
   0.4285714285714286  -0.1428571428571429  -0.4285714285714286       0.011661807580175
   0.4285714285714286  -0.2857142857142857  -0.2857142857142857       0.005830903790087
   0.2857142857142858   0.4285714285714286   0.4285714285714286       0.011661807580175
   0.2857142857142858   0.4285714285714286   0.2857142857142858       0.023323615160350
   0.2857142857142858   0.4285714285714286   0.1428571428571429       0.023323615160350
   0.2857142857142858   0.4285714285714286   0.0000000000000000       0.023323615160350
   0.2857142857142858   0.4285714285714286  -0.1428571428571429       0.011661807580175
   0.2857142857142858   0.4285714285714286  -0.2857142857142857       0.023323615160350
   0.2857142857142858   0.4285714285714286  -0.4285714285714286       0.023323615160350
   0.2857142857142858   0.2857142857142858   0.2857142857142858       0.011661807580175
   0.2857142857142858   0.2857142857142858   0.1428571428571429       0.023323615160350
   0.2857142857142858   0.2857142857142858   0.0000000000000000       0.011661807580175
   0.2857142857142858   0.2857142857142858  -0.2857142857142857       0.023323615160350
   0.2857142857142858   0.2857142857142858  -0.4285714285714286       0.023323615160350
   0.2857142857142858   0.1428571428571429   0.1428571428571429       0.005830903790087
   0.2857142857142858   0.1428571428571429  -0.2857142857142857       0.023323615160350
   0.2857142857142858  -0.2857142857142857  -0.2857142857142857       0.011661807580175
   0.2857142857142858  -0.2857142857142857  -0.4285714285714286       0.011661807580175
   0.1428571428571429   0.4285714285714286   0.4285714285714286       0.011661807580175
   0.1428571428571429   0.4285714285714286   0.2857142857142858       0.023323615160350
   0.1428571428571429   0.4285714285714286   0.1428571428571429       0.023323615160350
   0.1428571428571429   0.4285714285714286   0.0000000000000000       0.023323615160350
   0.1428571428571429   0.4285714285714286  -0.1428571428571429       0.023323615160350
   0.1428571428571429   0.4285714285714286  -0.2857142857142857       0.011661807580175
   0.1428571428571429   0.4285714285714286  -0.4285714285714286       0.023323615160350
   0.1428571428571429   0.2857142857142858   0.2857142857142858       0.011661807580175
   0.1428571428571429   0.2857142857142858   0.1428571428571429       0.023323615160350
   0.1428571428571429   0.2857142857142858   0.0000000000000000       0.023323615160350
   0.1428571428571429   0.2857142857142858  -0.1428571428571429       0.011661807580175
   0.1428571428571429   0.2857142857142858  -0.4285714285714286       0.023323615160350
   0.1428571428571429   0.1428571428571429   0.1428571428571429       0.011661807580175
   0.1428571428571429   0.1428571428571429   0.0000000000000000       0.011661807580175
   0.1428571428571429   0.1428571428571429  -0.4285714285714286       0.023323615160350
   0.1428571428571429  -0.4285714285714286  -0.4285714285714286       0.005830903790087
   0.0000000000000000   0.4285714285714286   0.4285714285714286       0.005830903790087
   0.0000000000000000   0.4285714285714286   0.2857142857142858       0.011661807580175
   0.0000000000000000   0.4285714285714286   0.1428571428571429       0.011661807580175
   0.0000000000000000   0.4285714285714286   0.0000000000000000       0.011661807580175
   0.0000000000000000   0.4285714285714286  -0.1428571428571429       0.011661807580175
   0.0000000000000000   0.4285714285714286  -0.2857142857142857       0.011661807580175
   0.0000000000000000   0.4285714285714286  -0.4285714285714286       0.005830903790087
   0.0000000000000000   0.2857142857142858   0.2857142857142858       0.005830903790087
   0.0000000000000000   0.2857142857142858   0.1428571428571429       0.011661807580175
   0.0000000000000000   0.2857142857142858   0.0000000000000000       0.011661807580175
   0.0000000000000000   0.2857142857142858  -0.1428571428571429       0.011661807580175
   0.0000000000000000   0.2857142857142858  -0.2857142857142857       0.005830903790087
   0.0000000000000000   0.1428571428571429   0.1428571428571429       0.005830903790087
   0.0000000000000000   0.1428571428571429   0.0000000000000000       0.011661807580175
   0.0000000000000000   0.1428571428571429  -0.1428571428571429       0.005830903790087
   0.0000000000000000   0.0000000000000000   0.0000000000000000       0.002915451895044
%ENDBLOCK KPOINTS_LIST

FIX_ALL_CELL : true

FIX_COM : false

%BLOCK IONIC_CONSTRAINTS
%ENDBLOCK IONIC_CONSTRAINTS

%BLOCK SPECIES_MASS
       B     10.8100004196
       N     14.0069999695
%ENDBLOCK SPECIES_MASS

%BLOCK SPECIES_POT
       B  B_00PBE.usp
       N  N_00PBE.usp
%ENDBLOCK SPECIES_POT

%BLOCK SPECIES_LCAO_STATES
       B         2
       N         2
%ENDBLOCK SPECIES_LCAO_STATES

