%BLOCK LATTICE_CART
      14.000000000000000       0.000000000000000       0.000000000000000
       0.000000000000000      10.000000000000000       0.000000000000000
       0.000000000000000       0.000000000000000      10.000000000000000
%ENDBLOCK LATTICE_CART

%BLOCK POSITIONS_FRAC
  H  -0.6398043280461200   0.4883989278647711  -0.4692933862256009
  H  -0.3669528424198726   0.4908644224904334  -0.4692395541603394
  C  -0.5583771824808514   0.4890841037120527  -0.4692604607855284
  C  -0.4483796529594517   0.4901141652393721  -0.4692892637135668
%ENDBLOCK POSITIONS_FRAC

%BLOCK KPOINTS_LIST
   0.0000000000000000   0.0000000000000000   0.0000000000000000       1.000000000000000
%ENDBLOCK KPOINTS_LIST

%BLOCK CELL_CONSTRAINTS
       1       2       3
       4       5       6
%ENDBLOCK CELL_CONSTRAINTS

FIX_COM : false
%BLOCK IONIC_CONSTRAINTS
%ENDBLOCK IONIC_CONSTRAINTS

%BLOCK EXTERNAL_EFIELD
    0.0000000000     0.0000000000     0.0000000000 
%ENDBLOCK EXTERNAL_EFIELD

%BLOCK SPECIES_MASS
       H      1.0080000162
       C     12.0109996796
%ENDBLOCK SPECIES_MASS

%BLOCK SPECIES_POT
       H  1|0.6|9|10|15|10UU(qc=8)[]
       C  2|1.4|11|12|14.7|20UU:21UU(qc=7)[]
%ENDBLOCK SPECIES_POT

%BLOCK SPECIES_LCAO_STATES
       H         1
       C         2
%ENDBLOCK SPECIES_LCAO_STATES

