%BLOCK LATTICE_CART
      12.000000000000000       0.000000000000000       0.000000000000000
       0.000000000000000      10.000000000000000       0.000000000000000
       0.000000000000000       0.000000000000000      10.000000000000000
%ENDBLOCK LATTICE_CART

%BLOCK POSITIONS_FRAC
  H  -0.3819107086832264   0.4808942514721353  -0.4842535690850186
  C  -0.4571516764727874   0.4112963556680273  -0.4842535690850186
%ENDBLOCK POSITIONS_FRAC

%BLOCK KPOINTS_LIST
   0.0000000000000000   0.0000000000000000   0.0000000000000000       1.000000000000000
%ENDBLOCK KPOINTS_LIST

%BLOCK CELL_CONSTRAINTS
       1       2       3
       4       5       6
%ENDBLOCK CELL_CONSTRAINTS

FIX_COM : false
%BLOCK IONIC_CONSTRAINTS
%ENDBLOCK IONIC_CONSTRAINTS

%BLOCK EXTERNAL_EFIELD
    0.0000000000     0.0000000000     0.0000000000 
%ENDBLOCK EXTERNAL_EFIELD

%BLOCK SPECIES_MASS
       H      1.0080000162
       C     12.0109996796
%ENDBLOCK SPECIES_MASS

%BLOCK SPECIES_POT
       H  1|0.6|9|10|15|10UU(qc=8)[]
       C  2|1.4|11|12|14.7|20UU:21UU(qc=7)[]
%ENDBLOCK SPECIES_POT

%BLOCK SPECIES_LCAO_STATES
       H         1
       C         2
%ENDBLOCK SPECIES_LCAO_STATES

