%BLOCK LATTICE_CART
       3.963276913723727       0.000000000000000       0.000000000000000
       0.000000000000000       2.802459981414137       0.000000000000000
       0.000000000000000       0.000000000000000      10.802459935917893
%ENDBLOCK LATTICE_CART

%BLOCK POSITIONS_FRAC
  C   0.4999999999999999   0.0000000000000000   0.3870104703613800
  O   0.4999999999999999   0.0000000000000000   0.4950211405028850
%ENDBLOCK POSITIONS_FRAC

%BLOCK KPOINTS_LIST
   0.3333333333333333   0.3750000000000000   0.0000000000000000       0.166666666666667
   0.3333333333333333   0.1250000000000000   0.0000000000000000       0.166666666666667
   0.3333333333333333  -0.1250000000000000   0.0000000000000000       0.166666666666667
   0.3333333333333333  -0.3750000000000000   0.0000000000000000       0.166666666666667
   0.0000000000000000   0.3750000000000000   0.0000000000000000       0.166666666666667
   0.0000000000000000   0.1250000000000000   0.0000000000000000       0.166666666666667
%ENDBLOCK KPOINTS_LIST

FIX_ALL_CELL : true

%BLOCK SPECIES_MASS
       C     12.0109996796
       O     15.9989995956
%ENDBLOCK SPECIES_MASS

%BLOCK SPECIES_POT
       C  2|1.4|11|12|14.7|20UU:21UU(qc=7)[]
       O  2|1.1|14|18|21|20UU:21UU(qc=7)[]
%ENDBLOCK SPECIES_POT

%BLOCK SPECIES_LCAO_STATES
       C         2
       O         2
%ENDBLOCK SPECIES_LCAO_STATES

