%BLOCK LATTICE_CART
      -0.000000000000000       2.715000000000000       2.715000000000000
       2.715000000000000      -0.000000000000000       2.714999999999999
       2.715000000000000       2.715000000000000      -0.000000000000000
%ENDBLOCK LATTICE_CART

%BLOCK POSITIONS_FRAC
 Si   0.0000000000000000   0.0000000000000000   0.0000000000000000
 Si   0.2500000000000001   1.2500000000000004   0.2500000000000000
%ENDBLOCK POSITIONS_FRAC

%BLOCK PHONON_KPOINT_LIST
   0.0000000000000000   0.0000000000000000   0.0000000000000000
%ENDBLOCK PHONON_KPOINT_LIST

%BLOCK PHONON_GAMMA_DIRECTIONS
   0.0000000000000000   0.0000000000000000   0.0000000000000000
%ENDBLOCK PHONON_GAMMA_DIRECTIONS

%BLOCK KPOINTS_LIST
   0.4000000000000000   0.4000000000000000   0.4000000000000000       0.064000000000000
   0.4000000000000000   0.4000000000000000   0.2000000000000000       0.192000000000000
   0.4000000000000000   0.4000000000000000   0.0000000000000000       0.048000000000000
   0.4000000000000000   0.4000000000000000  -0.2000000000000000       0.096000000000000
   0.4000000000000000   0.4000000000000000  -0.4000000000000000       0.192000000000000
   0.4000000000000000   0.2000000000000000   0.2000000000000000       0.096000000000000
   0.4000000000000000   0.2000000000000000  -0.2000000000000000       0.192000000000000
   0.2000000000000000   0.2000000000000000   0.2000000000000000       0.064000000000000
   0.2000000000000000   0.2000000000000000   0.0000000000000000       0.048000000000000
   0.0000000000000000   0.0000000000000000   0.0000000000000000       0.008000000000000
%ENDBLOCK KPOINTS_LIST

%BLOCK SYMMETRY_OPS
       1.000000000000000       0.000000000000000      -0.000000000000000
      -0.000000000000000       1.000000000000000       0.000000000000000
       0.000000000000000       0.000000000000000       1.000000000000000
       0.000000000000000       0.000000000000000       0.000000000000000
      -1.000000000000000       0.000000000000000       0.000000000000000
       0.000000000000000      -1.000000000000000       0.000000000000000
      -0.000000000000000      -0.000000000000000       1.000000000000000
       0.000000000000000       0.000000000000000       0.000000000000000
      -1.000000000000000       0.000000000000000       0.000000000000000
      -0.000000000000000       1.000000000000000      -0.000000000000000
       0.000000000000000       0.000000000000000      -1.000000000000000
       0.000000000000000       0.000000000000000       0.000000000000000
       1.000000000000000      -0.000000000000000      -0.000000000000000
       0.000000000000000      -1.000000000000000      -0.000000000000000
       0.000000000000000       0.000000000000000      -1.000000000000000
       0.000000000000000       0.000000000000000       0.000000000000000
       0.000000000000000       1.000000000000000       0.000000000000000
       0.000000000000000      -0.000000000000000       1.000000000000000
       1.000000000000000       0.000000000000000      -0.000000000000000
       0.000000000000000       0.000000000000000       0.000000000000000
       0.000000000000000      -1.000000000000000      -0.000000000000000
       0.000000000000000       0.000000000000000      -1.000000000000000
       1.000000000000000      -0.000000000000000      -0.000000000000000
       0.000000000000000       0.000000000000000       0.000000000000000
      -0.000000000000000      -1.000000000000000       0.000000000000000
      -0.000000000000000      -0.000000000000000       1.000000000000000
      -1.000000000000000       0.000000000000000       0.000000000000000
       0.000000000000000       0.000000000000000       0.000000000000000
      -0.000000000000000       1.000000000000000      -0.000000000000000
       0.000000000000000       0.000000000000000      -1.000000000000000
      -1.000000000000000       0.000000000000000       0.000000000000000
       0.000000000000000       0.000000000000000       0.000000000000000
       0.000000000000000       0.000000000000000       1.000000000000000
       1.000000000000000       0.000000000000000      -0.000000000000000
       0.000000000000000       1.000000000000000       0.000000000000000
       0.000000000000000       0.000000000000000       0.000000000000000
       0.000000000000000       0.000000000000000      -1.000000000000000
      -1.000000000000000       0.000000000000000       0.000000000000000
      -0.000000000000000       1.000000000000000      -0.000000000000000
       0.000000000000000       0.000000000000000       0.000000000000000
       0.000000000000000      -0.000000000000000      -1.000000000000000
       1.000000000000000      -0.000000000000000      -0.000000000000000
       0.000000000000000      -1.000000000000000      -0.000000000000000
       0.000000000000000       0.000000000000000       0.000000000000000
      -0.000000000000000      -0.000000000000000       1.000000000000000
      -1.000000000000000       0.000000000000000       0.000000000000000
       0.000000000000000      -1.000000000000000       0.000000000000000
       0.000000000000000       0.000000000000000       0.000000000000000
       0.000000000000000       1.000000000000000      -0.000000000000000
       1.000000000000000      -0.000000000000000      -0.000000000000000
       0.000000000000000       0.000000000000000      -1.000000000000000
       0.250000000000000       0.250000000000000       0.250000000000000
       0.000000000000000      -1.000000000000000      -0.000000000000000
      -1.000000000000000       0.000000000000000       0.000000000000000
      -0.000000000000000      -0.000000000000000      -1.000000000000000
       0.250000000000000       0.250000000000000       0.250000000000000
       0.000000000000000      -1.000000000000000       0.000000000000000
       1.000000000000000      -0.000000000000000      -0.000000000000000
       0.000000000000000      -0.000000000000000       1.000000000000000
       0.250000000000000       0.250000000000000       0.250000000000000
      -0.000000000000000       1.000000000000000       0.000000000000000
      -1.000000000000000       0.000000000000000       0.000000000000000
      -0.000000000000000       0.000000000000000       1.000000000000000
       0.250000000000000       0.250000000000000       0.250000000000000
       1.000000000000000       0.000000000000000      -0.000000000000000
       0.000000000000000       0.000000000000000      -1.000000000000000
       0.000000000000000       1.000000000000000      -0.000000000000000
       0.250000000000000       0.250000000000000       0.250000000000000
      -1.000000000000000       0.000000000000000       0.000000000000000
      -0.000000000000000       0.000000000000000       1.000000000000000
      -0.000000000000000       1.000000000000000       0.000000000000000
       0.250000000000000       0.250000000000000       0.250000000000000
      -1.000000000000000      -0.000000000000000       0.000000000000000
       0.000000000000000      -0.000000000000000      -1.000000000000000
      -0.000000000000000      -1.000000000000000      -0.000000000000000
       0.250000000000000       0.250000000000000       0.250000000000000
       1.000000000000000      -0.000000000000000      -0.000000000000000
      -0.000000000000000      -0.000000000000000       1.000000000000000
       0.000000000000000      -1.000000000000000       0.000000000000000
       0.250000000000000       0.250000000000000       0.250000000000000
       0.000000000000000       0.000000000000000      -1.000000000000000
       0.000000000000000       1.000000000000000       0.000000000000000
       1.000000000000000       0.000000000000000      -0.000000000000000
       0.250000000000000       0.250000000000000       0.250000000000000
       0.000000000000000      -0.000000000000000       1.000000000000000
       0.000000000000000      -1.000000000000000       0.000000000000000
       1.000000000000000      -0.000000000000000      -0.000000000000000
       0.250000000000000       0.250000000000000       0.250000000000000
      -0.000000000000000       0.000000000000000       1.000000000000000
      -0.000000000000000       1.000000000000000      -0.000000000000000
      -1.000000000000000       0.000000000000000       0.000000000000000
       0.250000000000000       0.250000000000000       0.250000000000000
      -0.000000000000000       0.000000000000000      -1.000000000000000
      -0.000000000000000      -1.000000000000000       0.000000000000000
      -1.000000000000000      -0.000000000000000       0.000000000000000
       0.250000000000000       0.250000000000000       0.250000000000000
      -1.000000000000000       0.000000000000000       0.000000000000000
       0.000000000000000      -1.000000000000000      -0.000000000000000
      -0.000000000000000      -0.000000000000000      -1.000000000000000
       0.250000000000000       0.250000000000000       0.250000000000000
       1.000000000000000       0.000000000000000      -0.000000000000000
      -0.000000000000000       1.000000000000000      -0.000000000000000
       0.000000000000000       0.000000000000000      -1.000000000000000
       0.250000000000000       0.250000000000000       0.250000000000000
       1.000000000000000      -0.000000000000000      -0.000000000000000
       0.000000000000000      -1.000000000000000       0.000000000000000
       0.000000000000000      -0.000000000000000       1.000000000000000
       0.250000000000000       0.250000000000000       0.250000000000000
      -1.000000000000000       0.000000000000000       0.000000000000000
      -0.000000000000000       1.000000000000000       0.000000000000000
      -0.000000000000000       0.000000000000000       1.000000000000000
       0.250000000000000       0.250000000000000       0.250000000000000
      -0.000000000000000      -1.000000000000000      -0.000000000000000
      -0.000000000000000       0.000000000000000      -1.000000000000000
      -1.000000000000000      -0.000000000000000       0.000000000000000
       0.250000000000000       0.250000000000000       0.250000000000000
      -0.000000000000000       1.000000000000000       0.000000000000000
      -0.000000000000000      -0.000000000000000       1.000000000000000
      -1.000000000000000       0.000000000000000       0.000000000000000
       0.250000000000000       0.250000000000000       0.250000000000000
       0.000000000000000       1.000000000000000      -0.000000000000000
       0.000000000000000       0.000000000000000      -1.000000000000000
       1.000000000000000       0.000000000000000      -0.000000000000000
       0.250000000000000       0.250000000000000       0.250000000000000
       0.000000000000000      -1.000000000000000       0.000000000000000
       0.000000000000000      -0.000000000000000       1.000000000000000
       1.000000000000000      -0.000000000000000      -0.000000000000000
       0.250000000000000       0.250000000000000       0.250000000000000
       0.000000000000000      -0.000000000000000      -1.000000000000000
      -1.000000000000000      -0.000000000000000       0.000000000000000
      -0.000000000000000      -1.000000000000000      -0.000000000000000
       0.250000000000000       0.250000000000000       0.250000000000000
       0.000000000000000      -0.000000000000000       1.000000000000000
       1.000000000000000      -0.000000000000000      -0.000000000000000
       0.000000000000000      -1.000000000000000       0.000000000000000
       0.250000000000000       0.250000000000000       0.250000000000000
      -0.000000000000000       0.000000000000000       1.000000000000000
      -1.000000000000000       0.000000000000000       0.000000000000000
      -0.000000000000000       1.000000000000000       0.000000000000000
       0.250000000000000       0.250000000000000       0.250000000000000
       0.000000000000000       0.000000000000000      -1.000000000000000
       1.000000000000000       0.000000000000000      -0.000000000000000
       0.000000000000000       1.000000000000000      -0.000000000000000
       0.250000000000000       0.250000000000000       0.250000000000000
       0.000000000000000      -1.000000000000000       0.000000000000000
      -1.000000000000000       0.000000000000000       0.000000000000000
      -0.000000000000000      -0.000000000000000       1.000000000000000
       0.000000000000000       0.000000000000000       0.000000000000000
       0.000000000000000       1.000000000000000       0.000000000000000
       1.000000000000000      -0.000000000000000      -0.000000000000000
       0.000000000000000       0.000000000000000       1.000000000000000
       0.000000000000000       0.000000000000000       0.000000000000000
      -0.000000000000000       1.000000000000000      -0.000000000000000
      -1.000000000000000       0.000000000000000       0.000000000000000
       0.000000000000000       0.000000000000000      -1.000000000000000
       0.000000000000000       0.000000000000000       0.000000000000000
       0.000000000000000      -1.000000000000000      -0.000000000000000
       1.000000000000000      -0.000000000000000      -0.000000000000000
       0.000000000000000       0.000000000000000      -1.000000000000000
       0.000000000000000       0.000000000000000       0.000000000000000
      -1.000000000000000      -0.000000000000000       0.000000000000000
      -0.000000000000000      -0.000000000000000       1.000000000000000
       0.000000000000000      -1.000000000000000       0.000000000000000
       0.000000000000000       0.000000000000000       0.000000000000000
       1.000000000000000      -0.000000000000000      -0.000000000000000
       0.000000000000000       0.000000000000000      -1.000000000000000
       0.000000000000000      -1.000000000000000      -0.000000000000000
       0.000000000000000       0.000000000000000       0.000000000000000
       1.000000000000000       0.000000000000000      -0.000000000000000
      -0.000000000000000       0.000000000000000       1.000000000000000
       0.000000000000000       1.000000000000000       0.000000000000000
       0.000000000000000       0.000000000000000       0.000000000000000
      -1.000000000000000       0.000000000000000       0.000000000000000
       0.000000000000000       0.000000000000000      -1.000000000000000
      -0.000000000000000       1.000000000000000      -0.000000000000000
       0.000000000000000       0.000000000000000       0.000000000000000
      -0.000000000000000      -0.000000000000000       1.000000000000000
       0.000000000000000      -1.000000000000000      -0.000000000000000
      -1.000000000000000       0.000000000000000       0.000000000000000
       0.000000000000000       0.000000000000000       0.000000000000000
      -0.000000000000000       0.000000000000000      -1.000000000000000
      -0.000000000000000       1.000000000000000       0.000000000000000
      -1.000000000000000       0.000000000000000       0.000000000000000
       0.000000000000000       0.000000000000000       0.000000000000000
       0.000000000000000       0.000000000000000      -1.000000000000000
       0.000000000000000      -1.000000000000000       0.000000000000000
       1.000000000000000      -0.000000000000000      -0.000000000000000
       0.000000000000000       0.000000000000000       0.000000000000000
       0.000000000000000       0.000000000000000       1.000000000000000
       0.000000000000000       1.000000000000000       0.000000000000000
       1.000000000000000       0.000000000000000      -0.000000000000000
       0.000000000000000       0.000000000000000       0.000000000000000
%ENDBLOCK SYMMETRY_OPS

FIX_COM : false
%BLOCK IONIC_CONSTRAINTS
%ENDBLOCK IONIC_CONSTRAINTS

%BLOCK EXTERNAL_EFIELD
    0.0000000000     0.0000000000     0.0000000000 
%ENDBLOCK EXTERNAL_EFIELD

%BLOCK EXTERNAL_PRESSURE
    0.0000000000    0.0000000000    0.0000000000
                    0.0000000000    0.0000000000
                                    0.0000000000
%ENDBLOCK EXTERNAL_PRESSURE

%BLOCK SPECIES_MASS
      Si     28.0849990845
%ENDBLOCK SPECIES_MASS

%BLOCK SPECIES_POT
      Si  Si_00PBE_OP.recpot
%ENDBLOCK SPECIES_POT

%BLOCK SPECIES_LCAO_STATES
      Si         2
%ENDBLOCK SPECIES_LCAO_STATES

