%BLOCK LATTICE_CART
       3.164999999999999       0.000000000000000       0.000000000000000
       0.000000000000000       3.164999999999999       0.000000000000000
       0.000000000000000       0.000000000000000      18.912499999999998
%ENDBLOCK LATTICE_CART

%BLOCK POSITIONS_FRAC
  W   0.5000000000000000   0.0000000000000000  -0.1255122273628554
  W   0.5000000000000000   0.0000000000000000   0.0418374091209518
  W   0.5000000000000000   0.0000000000000000   0.2091870456047590
  W   0.0000000000000000   0.5000000000000000   0.1255122273628553
  W   0.0000000000000000   0.5000000000000000  -0.0418374091209518
  W   0.0000000000000000   0.5000000000000000  -0.2091870456047590
%ENDBLOCK POSITIONS_FRAC

%BLOCK KPOINTS_LIST
   0.4000000000000000   0.4000000000000000   0.0000000000000000       0.160000000000000
   0.4000000000000000   0.2000000000000000   0.0000000000000000       0.320000000000000
   0.4000000000000000   0.0000000000000000   0.0000000000000000       0.160000000000000
   0.2000000000000000   0.2000000000000000   0.0000000000000000       0.160000000000000
   0.2000000000000000   0.0000000000000000   0.0000000000000000       0.160000000000000
   0.0000000000000000   0.0000000000000000   0.0000000000000000       0.040000000000000
%ENDBLOCK KPOINTS_LIST

%BLOCK SYMMETRY_OPS
       1.000000000000000       0.000000000000000       0.000000000000000
       0.000000000000000       1.000000000000000       0.000000000000000
       0.000000000000000       0.000000000000000       1.000000000000000
       0.000000000000000       0.000000000000000       0.000000000000000
      -1.000000000000000       0.000000000000000       0.000000000000000
       0.000000000000000      -1.000000000000000       0.000000000000000
       0.000000000000000       0.000000000000000       1.000000000000000
       0.000000000000000       0.000000000000000       0.000000000000000
       0.000000000000000       1.000000000000000       0.000000000000000
      -1.000000000000000       0.000000000000000       0.000000000000000
       0.000000000000000       0.000000000000000       1.000000000000000
       0.500000000000000       0.500000000000000       0.000000000000000
       0.000000000000000      -1.000000000000000       0.000000000000000
       1.000000000000000       0.000000000000000       0.000000000000000
       0.000000000000000       0.000000000000000       1.000000000000000
       0.500000000000000       0.500000000000000       0.000000000000000
      -1.000000000000000       0.000000000000000       0.000000000000000
       0.000000000000000       1.000000000000000       0.000000000000000
       0.000000000000000       0.000000000000000      -1.000000000000000
       0.500000000000000       0.500000000000000       0.000000000000000
       1.000000000000000       0.000000000000000       0.000000000000000
       0.000000000000000      -1.000000000000000       0.000000000000000
       0.000000000000000       0.000000000000000      -1.000000000000000
       0.500000000000000       0.500000000000000       0.000000000000000
       0.000000000000000       1.000000000000000       0.000000000000000
       1.000000000000000       0.000000000000000       0.000000000000000
       0.000000000000000       0.000000000000000      -1.000000000000000
       0.000000000000000       0.000000000000000       0.000000000000000
       0.000000000000000      -1.000000000000000       0.000000000000000
      -1.000000000000000       0.000000000000000       0.000000000000000
       0.000000000000000       0.000000000000000      -1.000000000000000
       0.000000000000000       0.000000000000000       0.000000000000000
      -1.000000000000000       0.000000000000000       0.000000000000000
       0.000000000000000      -1.000000000000000       0.000000000000000
       0.000000000000000       0.000000000000000      -1.000000000000000
       0.500000000000000       0.500000000000000       0.000000000000000
       1.000000000000000       0.000000000000000       0.000000000000000
       0.000000000000000       1.000000000000000       0.000000000000000
       0.000000000000000       0.000000000000000      -1.000000000000000
       0.500000000000000       0.500000000000000       0.000000000000000
       0.000000000000000      -1.000000000000000       0.000000000000000
       1.000000000000000       0.000000000000000       0.000000000000000
       0.000000000000000       0.000000000000000      -1.000000000000000
       0.000000000000000       0.000000000000000       0.000000000000000
       0.000000000000000       1.000000000000000       0.000000000000000
      -1.000000000000000       0.000000000000000       0.000000000000000
       0.000000000000000       0.000000000000000      -1.000000000000000
       0.000000000000000       0.000000000000000       0.000000000000000
       1.000000000000000       0.000000000000000       0.000000000000000
       0.000000000000000      -1.000000000000000       0.000000000000000
       0.000000000000000       0.000000000000000       1.000000000000000
       0.000000000000000       0.000000000000000       0.000000000000000
      -1.000000000000000       0.000000000000000       0.000000000000000
       0.000000000000000       1.000000000000000       0.000000000000000
       0.000000000000000       0.000000000000000       1.000000000000000
       0.000000000000000       0.000000000000000       0.000000000000000
       0.000000000000000      -1.000000000000000       0.000000000000000
      -1.000000000000000       0.000000000000000       0.000000000000000
       0.000000000000000       0.000000000000000       1.000000000000000
       0.500000000000000       0.500000000000000       0.000000000000000
       0.000000000000000       1.000000000000000       0.000000000000000
       1.000000000000000       0.000000000000000       0.000000000000000
       0.000000000000000       0.000000000000000       1.000000000000000
       0.500000000000000       0.500000000000000       0.000000000000000
%ENDBLOCK SYMMETRY_OPS

FIX_COM : false
%BLOCK IONIC_CONSTRAINTS
%ENDBLOCK IONIC_CONSTRAINTS

%BLOCK EXTERNAL_EFIELD
    0.0000000000     0.0000000000     0.0000000000 
%ENDBLOCK EXTERNAL_EFIELD

%BLOCK SPECIES_MASS
       W    183.8500061035
%ENDBLOCK SPECIES_MASS

%BLOCK SPECIES_POT
       W  3|2.4|9.5|11|13|50U:60UU:51UU:52UU:43UU(qc=6)[]
%ENDBLOCK SPECIES_POT

%BLOCK SPECIES_LCAO_STATES
       W         3
%ENDBLOCK SPECIES_LCAO_STATES

