%BLOCK LATTICE_CART
       0.000000000000000       1.807350000000000       1.807350000000000
       1.807350000000000       0.000000000000000       1.807349999999999
       1.807350000000000       1.807350000000000      -0.000000000000000
%ENDBLOCK LATTICE_CART

%BLOCK POSITIONS_FRAC
 Cu   0.0000000000000000   0.0000000000000000   0.0000000000000000
%ENDBLOCK POSITIONS_FRAC

%BLOCK SPECTRAL_KPOINT_LIST
   0.5000000000000000   0.2500000000000000   0.7500000000000000       0.031250000000000
   0.5000000000000000   0.2692307692307692   0.7307692307692307       0.015625000000000
   0.5000000000000000   0.2884615384615384   0.7115384615384616       0.015625000000000
   0.5000000000000000   0.3076923076923077   0.6923076923076923       0.015625000000000
   0.5000000000000000   0.3269230769230769   0.6730769230769231       0.015625000000000
   0.5000000000000000   0.3461538461538462   0.6538461538461539       0.015625000000000
   0.5000000000000000   0.3653846153846154   0.6346153846153846       0.015625000000000
   0.5000000000000000   0.3846153846153846   0.6153846153846154       0.015625000000000
   0.5000000000000000   0.4038461538461539   0.5961538461538462       0.015625000000000
   0.5000000000000000   0.4230769230769231   0.5769230769230769       0.015625000000000
   0.5000000000000000   0.4423076923076923   0.5576923076923077       0.015625000000000
   0.5000000000000000   0.4615384615384616   0.5384615384615384       0.015625000000000
   0.5000000000000000   0.4807692307692308   0.5192307692307692       0.015625000000000
   0.5000000000000000   0.5000000000000000   0.5000000000000000       0.015625000000000
   0.4687500000000000   0.4687500000000000   0.4687500000000000       0.015625000000000
   0.4375000000000000   0.4375000000000000   0.4375000000000000       0.015625000000000
   0.4062500000000000   0.4062500000000000   0.4062500000000000       0.015625000000000
   0.3750000000000000   0.3750000000000000   0.3750000000000000       0.015625000000000
   0.3437500000000000   0.3437500000000000   0.3437500000000000       0.015625000000000
   0.3125000000000000   0.3125000000000000   0.3125000000000000       0.015625000000000
   0.2812500000000000   0.2812500000000000   0.2812500000000000       0.015625000000000
   0.2500000000000000   0.2500000000000000   0.2500000000000000       0.015625000000000
   0.2187500000000000   0.2187500000000000   0.2187500000000000       0.015625000000000
   0.1875000000000000   0.1875000000000000   0.1875000000000000       0.015625000000000
   0.1562500000000000   0.1562500000000000   0.1562500000000000       0.015625000000000
   0.1250000000000000   0.1250000000000000   0.1250000000000000       0.015625000000000
   0.0937500000000000   0.0937500000000000   0.0937500000000000       0.015625000000000
   0.0625000000000000   0.0625000000000000   0.0625000000000000       0.015625000000000
   0.0312500000000000   0.0312500000000000   0.0312500000000000       0.015625000000000
   0.0000000000000000   0.0000000000000000   0.0000000000000000       0.015625000000000
   0.0277777777777778   0.0000000000000000   0.0277777777777778       0.015625000000000
   0.0555555555555556   0.0000000000000000   0.0555555555555556       0.015625000000000
   0.0833333333333333   0.0000000000000000   0.0833333333333333       0.015625000000000
   0.1111111111111111   0.0000000000000000   0.1111111111111111       0.015625000000000
   0.1388888888888889   0.0000000000000000   0.1388888888888889       0.015625000000000
   0.1666666666666667   0.0000000000000000   0.1666666666666667       0.015625000000000
   0.1944444444444444   0.0000000000000000   0.1944444444444444       0.015625000000000
   0.2222222222222222   0.0000000000000000   0.2222222222222222       0.015625000000000
   0.2500000000000000   0.0000000000000000   0.2500000000000000       0.015625000000000
   0.2777777777777778   0.0000000000000000   0.2777777777777778       0.015625000000000
   0.3055555555555555   0.0000000000000000   0.3055555555555555       0.015625000000000
   0.3333333333333333   0.0000000000000000   0.3333333333333333       0.015625000000000
   0.3611111111111111   0.0000000000000000   0.3611111111111111       0.015625000000000
   0.3888888888888888   0.0000000000000000   0.3888888888888888       0.015625000000000
   0.4166666666666666   0.0000000000000000   0.4166666666666666       0.015625000000000
   0.4444444444444444   0.0000000000000000   0.4444444444444444       0.015625000000000
   0.4722222222222222   0.0000000000000000   0.4722222222222222       0.015625000000000
   0.5000000000000000   0.0000000000000000   0.5000000000000000       0.015625000000000
   0.5000000000000000   0.0277777777777778   0.5277777777777778       0.015625000000000
   0.5000000000000000   0.0555555555555556   0.5555555555555556       0.015625000000000
   0.5000000000000000   0.0833333333333333   0.5833333333333334       0.015625000000000
   0.5000000000000000   0.1111111111111111   0.6111111111111112       0.015625000000000
   0.5000000000000000   0.1388888888888889   0.6388888888888888       0.015625000000000
   0.5000000000000000   0.1666666666666667   0.6666666666666666       0.015625000000000
   0.5000000000000000   0.1944444444444444   0.6944444444444444       0.015625000000000
   0.5000000000000000   0.2222222222222222   0.7222222222222222       0.015625000000000
   0.4821428571428572   0.2678571428571429   0.7500000000000000       0.015625000000000
   0.4642857142857143   0.2857142857142857   0.7500000000000000       0.015625000000000
   0.4464285714285715   0.3035714285714286   0.7500000000000000       0.015625000000000
   0.4285714285714286   0.3214285714285714   0.7500000000000000       0.015625000000000
   0.4107142857142857   0.3392857142857143   0.7500000000000000       0.015625000000000
   0.3928571428571429   0.3571428571428572   0.7500000000000000       0.015625000000000
   0.3750000000000000   0.3750000000000000   0.7500000000000000       0.015625000000000
%ENDBLOCK SPECTRAL_KPOINT_LIST

%BLOCK KPOINTS_LIST
   0.4583333333333333   0.4583333333333333   0.4583333333333333       0.001157407407407
   0.4583333333333333   0.4583333333333333   0.3750000000000001       0.003472222222222
   0.4583333333333333   0.4583333333333333   0.2916666666666667       0.003472222222222
   0.4583333333333333   0.4583333333333333   0.2083333333333333       0.003472222222222
   0.4583333333333333   0.4583333333333333   0.1250000000000001       0.003472222222222
   0.4583333333333333   0.4583333333333333   0.0416666666666667       0.003472222222222
   0.4583333333333333   0.4583333333333333  -0.0416666666666666       0.003472222222222
   0.4583333333333333   0.4583333333333333  -0.1250000000000000       0.003472222222222
   0.4583333333333333   0.4583333333333333  -0.2083333333333333       0.003472222222222
   0.4583333333333333   0.4583333333333333  -0.2916666666666666       0.003472222222222
   0.4583333333333333   0.4583333333333333  -0.3750000000000000       0.003472222222222
   0.4583333333333333   0.4583333333333333  -0.4583333333333333       0.003472222222222
   0.4583333333333333   0.3750000000000001   0.3750000000000001       0.003472222222222
   0.4583333333333333   0.3750000000000001   0.2916666666666667       0.006944444444444
   0.4583333333333333   0.3750000000000001   0.2083333333333333       0.006944444444444
   0.4583333333333333   0.3750000000000001   0.1250000000000001       0.006944444444444
   0.4583333333333333   0.3750000000000001   0.0416666666666667       0.006944444444444
   0.4583333333333333   0.3750000000000001  -0.0416666666666666       0.006944444444444
   0.4583333333333333   0.3750000000000001  -0.1250000000000000       0.006944444444444
   0.4583333333333333   0.3750000000000001  -0.2083333333333333       0.006944444444444
   0.4583333333333333   0.3750000000000001  -0.2916666666666666       0.006944444444444
   0.4583333333333333   0.3750000000000001  -0.3750000000000000       0.006944444444444
   0.4583333333333333   0.3750000000000001  -0.4583333333333333       0.006944444444444
   0.4583333333333333   0.2916666666666667   0.2916666666666667       0.003472222222222
   0.4583333333333333   0.2916666666666667   0.2083333333333333       0.006944444444444
   0.4583333333333333   0.2916666666666667   0.1250000000000001       0.006944444444444
   0.4583333333333333   0.2916666666666667   0.0416666666666667       0.006944444444444
   0.4583333333333333   0.2916666666666667  -0.0416666666666666       0.006944444444444
   0.4583333333333333   0.2916666666666667  -0.1250000000000000       0.006944444444444
   0.4583333333333333   0.2916666666666667  -0.2083333333333333       0.006944444444444
   0.4583333333333333   0.2916666666666667  -0.2916666666666666       0.006944444444444
   0.4583333333333333   0.2916666666666667  -0.3750000000000000       0.006944444444444
   0.4583333333333333   0.2916666666666667  -0.4583333333333333       0.006944444444444
   0.4583333333333333   0.2083333333333333   0.2083333333333333       0.003472222222222
   0.4583333333333333   0.2083333333333333   0.1250000000000001       0.006944444444444
   0.4583333333333333   0.2083333333333333   0.0416666666666667       0.006944444444444
   0.4583333333333333   0.2083333333333333  -0.0416666666666666       0.006944444444444
   0.4583333333333333   0.2083333333333333  -0.1250000000000000       0.006944444444444
   0.4583333333333333   0.2083333333333333  -0.2083333333333333       0.006944444444444
   0.4583333333333333   0.2083333333333333  -0.2916666666666666       0.006944444444444
   0.4583333333333333   0.2083333333333333  -0.3750000000000000       0.006944444444444
   0.4583333333333333   0.2083333333333333  -0.4583333333333333       0.006944444444444
   0.4583333333333333   0.1250000000000001   0.1250000000000001       0.003472222222222
   0.4583333333333333   0.1250000000000001   0.0416666666666667       0.006944444444444
   0.4583333333333333   0.1250000000000001  -0.0416666666666666       0.006944444444444
   0.4583333333333333   0.1250000000000001  -0.1250000000000000       0.006944444444444
   0.4583333333333333   0.1250000000000001  -0.2083333333333333       0.006944444444444
   0.4583333333333333   0.1250000000000001  -0.2916666666666666       0.006944444444444
   0.4583333333333333   0.1250000000000001  -0.3750000000000000       0.006944444444444
   0.4583333333333333   0.1250000000000001  -0.4583333333333333       0.006944444444444
   0.4583333333333333   0.0416666666666667   0.0416666666666667       0.003472222222222
   0.4583333333333333   0.0416666666666667  -0.0416666666666666       0.006944444444444
   0.4583333333333333   0.0416666666666667  -0.1250000000000000       0.006944444444444
   0.4583333333333333   0.0416666666666667  -0.2083333333333333       0.006944444444444
   0.4583333333333333   0.0416666666666667  -0.2916666666666666       0.006944444444444
   0.4583333333333333   0.0416666666666667  -0.3750000000000000       0.006944444444444
   0.4583333333333333   0.0416666666666667  -0.4583333333333333       0.006944444444444
   0.4583333333333333  -0.0416666666666666  -0.0416666666666666       0.003472222222222
   0.4583333333333333  -0.0416666666666666  -0.1250000000000000       0.006944444444444
   0.4583333333333333  -0.0416666666666666  -0.2083333333333333       0.006944444444444
   0.4583333333333333  -0.0416666666666666  -0.2916666666666666       0.006944444444444
   0.4583333333333333  -0.0416666666666666  -0.3750000000000000       0.006944444444444
   0.4583333333333333  -0.1250000000000000  -0.1250000000000000       0.003472222222222
   0.4583333333333333  -0.1250000000000000  -0.2083333333333333       0.006944444444444
   0.4583333333333333  -0.1250000000000000  -0.2916666666666666       0.006944444444444
   0.4583333333333333  -0.1250000000000000  -0.3750000000000000       0.006944444444444
   0.4583333333333333  -0.2083333333333333  -0.2083333333333333       0.003472222222222
   0.4583333333333333  -0.2083333333333333  -0.2916666666666666       0.006944444444444
   0.4583333333333333  -0.2083333333333333  -0.3750000000000000       0.006944444444444
   0.4583333333333333  -0.2916666666666666  -0.2916666666666666       0.003472222222222
   0.4583333333333333  -0.2916666666666666  -0.3750000000000000       0.006944444444444
   0.4583333333333333  -0.3750000000000000  -0.3750000000000000       0.003472222222222
   0.3750000000000001   0.3750000000000001   0.3750000000000001       0.001157407407407
   0.3750000000000001   0.3750000000000001   0.2916666666666667       0.003472222222222
   0.3750000000000001   0.3750000000000001   0.2083333333333333       0.003472222222222
   0.3750000000000001   0.3750000000000001   0.1250000000000001       0.003472222222222
   0.3750000000000001   0.3750000000000001   0.0416666666666667       0.003472222222222
   0.3750000000000001   0.3750000000000001  -0.0416666666666666       0.003472222222222
   0.3750000000000001   0.3750000000000001  -0.1250000000000000       0.003472222222222
   0.3750000000000001   0.3750000000000001  -0.2083333333333333       0.003472222222222
   0.3750000000000001   0.3750000000000001  -0.2916666666666666       0.003472222222222
   0.3750000000000001   0.3750000000000001  -0.3750000000000000       0.003472222222222
   0.3750000000000001   0.2916666666666667   0.2916666666666667       0.003472222222222
   0.3750000000000001   0.2916666666666667   0.2083333333333333       0.006944444444444
   0.3750000000000001   0.2916666666666667   0.1250000000000001       0.006944444444444
   0.3750000000000001   0.2916666666666667   0.0416666666666667       0.006944444444444
   0.3750000000000001   0.2916666666666667  -0.0416666666666666       0.006944444444444
   0.3750000000000001   0.2916666666666667  -0.1250000000000000       0.006944444444444
   0.3750000000000001   0.2916666666666667  -0.2083333333333333       0.006944444444444
   0.3750000000000001   0.2916666666666667  -0.2916666666666666       0.006944444444444
   0.3750000000000001   0.2916666666666667  -0.3750000000000000       0.006944444444444
   0.3750000000000001   0.2083333333333333   0.2083333333333333       0.003472222222222
   0.3750000000000001   0.2083333333333333   0.1250000000000001       0.006944444444444
   0.3750000000000001   0.2083333333333333   0.0416666666666667       0.006944444444444
   0.3750000000000001   0.2083333333333333  -0.0416666666666666       0.006944444444444
   0.3750000000000001   0.2083333333333333  -0.1250000000000000       0.006944444444444
   0.3750000000000001   0.2083333333333333  -0.2083333333333333       0.006944444444444
   0.3750000000000001   0.2083333333333333  -0.2916666666666666       0.006944444444444
   0.3750000000000001   0.2083333333333333  -0.3750000000000000       0.006944444444444
   0.3750000000000001   0.1250000000000001   0.1250000000000001       0.003472222222222
   0.3750000000000001   0.1250000000000001   0.0416666666666667       0.006944444444444
   0.3750000000000001   0.1250000000000001  -0.0416666666666666       0.006944444444444
   0.3750000000000001   0.1250000000000001  -0.1250000000000000       0.006944444444444
   0.3750000000000001   0.1250000000000001  -0.2083333333333333       0.006944444444444
   0.3750000000000001   0.1250000000000001  -0.2916666666666666       0.006944444444444
   0.3750000000000001   0.1250000000000001  -0.3750000000000000       0.006944444444444
   0.3750000000000001   0.0416666666666667   0.0416666666666667       0.003472222222222
   0.3750000000000001   0.0416666666666667  -0.0416666666666666       0.006944444444444
   0.3750000000000001   0.0416666666666667  -0.1250000000000000       0.006944444444444
   0.3750000000000001   0.0416666666666667  -0.2083333333333333       0.006944444444444
   0.3750000000000001   0.0416666666666667  -0.2916666666666666       0.006944444444444
   0.3750000000000001   0.0416666666666667  -0.3750000000000000       0.006944444444444
   0.3750000000000001  -0.0416666666666666  -0.0416666666666666       0.003472222222222
   0.3750000000000001  -0.0416666666666666  -0.1250000000000000       0.006944444444444
   0.3750000000000001  -0.0416666666666666  -0.2083333333333333       0.006944444444444
   0.3750000000000001  -0.0416666666666666  -0.2916666666666666       0.006944444444444
   0.3750000000000001  -0.1250000000000000  -0.1250000000000000       0.003472222222222
   0.3750000000000001  -0.1250000000000000  -0.2083333333333333       0.006944444444444
   0.3750000000000001  -0.1250000000000000  -0.2916666666666666       0.006944444444444
   0.3750000000000001  -0.2083333333333333  -0.2083333333333333       0.003472222222222
   0.3750000000000001  -0.2083333333333333  -0.2916666666666666       0.006944444444444
   0.3750000000000001  -0.2916666666666666  -0.2916666666666666       0.003472222222222
   0.2916666666666667   0.2916666666666667   0.2916666666666667       0.001157407407407
   0.2916666666666667   0.2916666666666667   0.2083333333333333       0.003472222222222
   0.2916666666666667   0.2916666666666667   0.1250000000000001       0.003472222222222
   0.2916666666666667   0.2916666666666667   0.0416666666666667       0.003472222222222
   0.2916666666666667   0.2916666666666667  -0.0416666666666666       0.003472222222222
   0.2916666666666667   0.2916666666666667  -0.1250000000000000       0.003472222222222
   0.2916666666666667   0.2916666666666667  -0.2083333333333333       0.003472222222222
   0.2916666666666667   0.2916666666666667  -0.2916666666666666       0.003472222222222
   0.2916666666666667   0.2083333333333333   0.2083333333333333       0.003472222222222
   0.2916666666666667   0.2083333333333333   0.1250000000000001       0.006944444444444
   0.2916666666666667   0.2083333333333333   0.0416666666666667       0.006944444444444
   0.2916666666666667   0.2083333333333333  -0.0416666666666666       0.006944444444444
   0.2916666666666667   0.2083333333333333  -0.1250000000000000       0.006944444444444
   0.2916666666666667   0.2083333333333333  -0.2083333333333333       0.006944444444444
   0.2916666666666667   0.2083333333333333  -0.2916666666666666       0.006944444444444
   0.2916666666666667   0.1250000000000001   0.1250000000000001       0.003472222222222
   0.2916666666666667   0.1250000000000001   0.0416666666666667       0.006944444444444
   0.2916666666666667   0.1250000000000001  -0.0416666666666666       0.006944444444444
   0.2916666666666667   0.1250000000000001  -0.1250000000000000       0.006944444444444
   0.2916666666666667   0.1250000000000001  -0.2083333333333333       0.006944444444444
   0.2916666666666667   0.1250000000000001  -0.2916666666666666       0.006944444444444
   0.2916666666666667   0.0416666666666667   0.0416666666666667       0.003472222222222
   0.2916666666666667   0.0416666666666667  -0.0416666666666666       0.006944444444444
   0.2916666666666667   0.0416666666666667  -0.1250000000000000       0.006944444444444
   0.2916666666666667   0.0416666666666667  -0.2083333333333333       0.006944444444444
   0.2916666666666667   0.0416666666666667  -0.2916666666666666       0.006944444444444
   0.2916666666666667  -0.0416666666666666  -0.0416666666666666       0.003472222222222
   0.2916666666666667  -0.0416666666666666  -0.1250000000000000       0.006944444444444
   0.2916666666666667  -0.0416666666666666  -0.2083333333333333       0.006944444444444
   0.2916666666666667  -0.1250000000000000  -0.1250000000000000       0.003472222222222
   0.2916666666666667  -0.1250000000000000  -0.2083333333333333       0.006944444444444
   0.2916666666666667  -0.2083333333333333  -0.2083333333333333       0.003472222222222
   0.2083333333333333   0.2083333333333333   0.2083333333333333       0.001157407407407
   0.2083333333333333   0.2083333333333333   0.1250000000000001       0.003472222222222
   0.2083333333333333   0.2083333333333333   0.0416666666666667       0.003472222222222
   0.2083333333333333   0.2083333333333333  -0.0416666666666666       0.003472222222222
   0.2083333333333333   0.2083333333333333  -0.1250000000000000       0.003472222222222
   0.2083333333333333   0.2083333333333333  -0.2083333333333333       0.003472222222222
   0.2083333333333333   0.1250000000000001   0.1250000000000001       0.003472222222222
   0.2083333333333333   0.1250000000000001   0.0416666666666667       0.006944444444444
   0.2083333333333333   0.1250000000000001  -0.0416666666666666       0.006944444444444
   0.2083333333333333   0.1250000000000001  -0.1250000000000000       0.006944444444444
   0.2083333333333333   0.1250000000000001  -0.2083333333333333       0.006944444444444
   0.2083333333333333   0.0416666666666667   0.0416666666666667       0.003472222222222
   0.2083333333333333   0.0416666666666667  -0.0416666666666666       0.006944444444444
   0.2083333333333333   0.0416666666666667  -0.1250000000000000       0.006944444444444
   0.2083333333333333   0.0416666666666667  -0.2083333333333333       0.006944444444444
   0.2083333333333333  -0.0416666666666666  -0.0416666666666666       0.003472222222222
   0.2083333333333333  -0.0416666666666666  -0.1250000000000000       0.006944444444444
   0.2083333333333333  -0.1250000000000000  -0.1250000000000000       0.003472222222222
   0.1250000000000001   0.1250000000000001   0.1250000000000001       0.001157407407407
   0.1250000000000001   0.1250000000000001   0.0416666666666667       0.003472222222222
   0.1250000000000001   0.1250000000000001  -0.0416666666666666       0.003472222222222
   0.1250000000000001   0.1250000000000001  -0.1250000000000000       0.003472222222222
   0.1250000000000001   0.0416666666666667   0.0416666666666667       0.003472222222222
   0.1250000000000001   0.0416666666666667  -0.0416666666666666       0.006944444444444
   0.1250000000000001   0.0416666666666667  -0.1250000000000000       0.006944444444444
   0.1250000000000001  -0.0416666666666666  -0.0416666666666666       0.003472222222222
   0.0416666666666667   0.0416666666666667   0.0416666666666667       0.001157407407407
   0.0416666666666667   0.0416666666666667  -0.0416666666666666       0.003472222222222
%ENDBLOCK KPOINTS_LIST

FIX_COM : false
%BLOCK IONIC_CONSTRAINTS
%ENDBLOCK IONIC_CONSTRAINTS

%BLOCK EXTERNAL_EFIELD
    0.0000000000     0.0000000000     0.0000000000 
%ENDBLOCK EXTERNAL_EFIELD

%BLOCK EXTERNAL_PRESSURE
    0.0000000000    0.0000000000    0.0000000000
                    0.0000000000    0.0000000000
                                    0.0000000000
%ENDBLOCK EXTERNAL_PRESSURE

%BLOCK SPECIES_MASS
      Cu     63.5460014343
%ENDBLOCK SPECIES_MASS

%BLOCK SPECIES_POT
      Cu  3|2.2|2|1|10|13|15|40UU:41UU:32UU(qc=6)[]
%ENDBLOCK SPECIES_POT

%BLOCK SPECIES_LCAO_STATES
      Cu         3
%ENDBLOCK SPECIES_LCAO_STATES

