%BLOCK LATTICE_CART
       0.000000000000000       2.866066700747180       2.866066700747180
       2.866066700747180       0.000000000000000       2.866066700747180
       2.866066700747180       2.866066700747180      -0.000000000000001
%ENDBLOCK LATTICE_CART

%BLOCK POSITIONS_FRAC
 Al   0.0000000000000000   0.0000000000000000   0.0000000000000000
 As   0.2500000000000001   0.2500000000000001   0.2499999999999999
%ENDBLOCK POSITIONS_FRAC

%BLOCK KPOINTS_LIST
   0.4375000000000000   0.4375000000000000   0.4375000000000000       0.003906250000000
   0.4375000000000000   0.4375000000000000   0.3125000000000000       0.011718750000000
   0.4375000000000000   0.4375000000000000   0.1875000000000000       0.011718750000000
   0.4375000000000000   0.4375000000000000   0.0625000000000000       0.011718750000000
   0.4375000000000000   0.4375000000000000  -0.0625000000000000       0.011718750000000
   0.4375000000000000   0.4375000000000000  -0.1875000000000000       0.011718750000000
   0.4375000000000000   0.4375000000000000  -0.3125000000000000       0.011718750000000
   0.4375000000000000   0.4375000000000000  -0.4375000000000000       0.011718750000000
   0.4375000000000000   0.3125000000000000   0.3125000000000000       0.011718750000000
   0.4375000000000000   0.3125000000000000   0.1875000000000000       0.023437500000000
   0.4375000000000000   0.3125000000000000   0.0625000000000000       0.023437500000000
   0.4375000000000000   0.3125000000000000  -0.0625000000000000       0.023437500000000
   0.4375000000000000   0.3125000000000000  -0.1875000000000000       0.023437500000000
   0.4375000000000000   0.3125000000000000  -0.3125000000000000       0.023437500000000
   0.4375000000000000   0.3125000000000000  -0.4375000000000000       0.023437500000000
   0.4375000000000000   0.1875000000000000   0.1875000000000000       0.011718750000000
   0.4375000000000000   0.1875000000000000   0.0625000000000000       0.023437500000000
   0.4375000000000000   0.1875000000000000  -0.0625000000000000       0.023437500000000
   0.4375000000000000   0.1875000000000000  -0.1875000000000000       0.023437500000000
   0.4375000000000000   0.1875000000000000  -0.3125000000000000       0.023437500000000
   0.4375000000000000   0.1875000000000000  -0.4375000000000000       0.023437500000000
   0.4375000000000000   0.0625000000000000   0.0625000000000000       0.011718750000000
   0.4375000000000000   0.0625000000000000  -0.0625000000000000       0.023437500000000
   0.4375000000000000   0.0625000000000000  -0.1875000000000000       0.023437500000000
   0.4375000000000000   0.0625000000000000  -0.3125000000000000       0.023437500000000
   0.4375000000000000   0.0625000000000000  -0.4375000000000000       0.023437500000000
   0.4375000000000000  -0.0625000000000000  -0.0625000000000000       0.011718750000000
   0.4375000000000000  -0.0625000000000000  -0.1875000000000000       0.023437500000000
   0.4375000000000000  -0.0625000000000000  -0.3125000000000000       0.023437500000000
   0.4375000000000000  -0.1875000000000000  -0.1875000000000000       0.011718750000000
   0.4375000000000000  -0.1875000000000000  -0.3125000000000000       0.023437500000000
   0.4375000000000000  -0.3125000000000000  -0.3125000000000000       0.011718750000000
   0.3125000000000000   0.3125000000000000   0.3125000000000000       0.003906250000000
   0.3125000000000000   0.3125000000000000   0.1875000000000000       0.011718750000000
   0.3125000000000000   0.3125000000000000   0.0625000000000000       0.011718750000000
   0.3125000000000000   0.3125000000000000  -0.0625000000000000       0.011718750000000
   0.3125000000000000   0.3125000000000000  -0.1875000000000000       0.011718750000000
   0.3125000000000000   0.3125000000000000  -0.3125000000000000       0.011718750000000
   0.3125000000000000   0.1875000000000000   0.1875000000000000       0.011718750000000
   0.3125000000000000   0.1875000000000000   0.0625000000000000       0.023437500000000
   0.3125000000000000   0.1875000000000000  -0.0625000000000000       0.023437500000000
   0.3125000000000000   0.1875000000000000  -0.1875000000000000       0.023437500000000
   0.3125000000000000   0.1875000000000000  -0.3125000000000000       0.023437500000000
   0.3125000000000000   0.0625000000000000   0.0625000000000000       0.011718750000000
   0.3125000000000000   0.0625000000000000  -0.0625000000000000       0.023437500000000
   0.3125000000000000   0.0625000000000000  -0.1875000000000000       0.023437500000000
   0.3125000000000000   0.0625000000000000  -0.3125000000000000       0.023437500000000
   0.3125000000000000  -0.0625000000000000  -0.0625000000000000       0.011718750000000
   0.3125000000000000  -0.0625000000000000  -0.1875000000000000       0.023437500000000
   0.3125000000000000  -0.1875000000000000  -0.1875000000000000       0.011718750000000
   0.1875000000000000   0.1875000000000000   0.1875000000000000       0.003906250000000
   0.1875000000000000   0.1875000000000000   0.0625000000000000       0.011718750000000
   0.1875000000000000   0.1875000000000000  -0.0625000000000000       0.011718750000000
   0.1875000000000000   0.1875000000000000  -0.1875000000000000       0.011718750000000
   0.1875000000000000   0.0625000000000000   0.0625000000000000       0.011718750000000
   0.1875000000000000   0.0625000000000000  -0.0625000000000000       0.023437500000000
   0.1875000000000000   0.0625000000000000  -0.1875000000000000       0.023437500000000
   0.1875000000000000  -0.0625000000000000  -0.0625000000000000       0.011718750000000
   0.0625000000000000   0.0625000000000000   0.0625000000000000       0.003906250000000
   0.0625000000000000   0.0625000000000000  -0.0625000000000000       0.011718750000000
%ENDBLOCK KPOINTS_LIST

%BLOCK SYMMETRY_OPS
       1.000000000000000       0.000000000000000       0.000000000000000
       0.000000000000000       1.000000000000000       0.000000000000000
       0.000000000000000       0.000000000000000       1.000000000000000
       0.000000000000000       0.000000000000000       0.000000000000000
      -1.000000000000000       0.000000000000000       0.000000000000001
       0.000000000000000      -1.000000000000000       0.000000000000001
       0.000000000000000       0.000000000000000       1.000000000000000
       0.000000000000000       0.000000000000000       0.000000000000000
      -1.000000000000000       0.000000000000000      -0.000000000000000
       0.000000000000000       1.000000000000000      -0.000000000000000
       0.000000000000000       0.000000000000000      -1.000000000000000
       0.000000000000000       0.000000000000000       0.000000000000000
       1.000000000000000       0.000000000000000      -0.000000000000000
      -0.000000000000000      -1.000000000000000      -0.000000000000000
      -0.000000000000000       0.000000000000000      -1.000000000000000
       0.000000000000000       0.000000000000000       0.000000000000000
       0.000000000000000       1.000000000000000      -0.000000000000000
       0.000000000000000      -0.000000000000000       1.000000000000000
       1.000000000000000      -0.000000000000000      -0.000000000000000
       0.000000000000000       0.000000000000000       0.000000000000000
       0.000000000000000      -1.000000000000000       0.000000000000000
       0.000000000000000       0.000000000000000      -1.000000000000000
       1.000000000000000       0.000000000000000      -0.000000000000000
       0.000000000000000       0.000000000000000       0.000000000000000
      -0.000000000000000      -1.000000000000000       0.000000000000000
      -0.000000000000000       0.000000000000000       1.000000000000000
      -1.000000000000000       0.000000000000000       0.000000000000000
       0.000000000000000       0.000000000000000       0.000000000000000
      -0.000000000000000       1.000000000000000      -0.000000000000000
      -0.000000000000000      -0.000000000000000      -1.000000000000000
      -1.000000000000000      -0.000000000000000       0.000000000000000
       0.000000000000000       0.000000000000000       0.000000000000000
       0.000000000000000       0.000000000000000       1.000000000000000
       1.000000000000000       0.000000000000000      -0.000000000000000
       0.000000000000000       1.000000000000000      -0.000000000000000
       0.000000000000000       0.000000000000000       0.000000000000000
      -0.000000000000000       0.000000000000000      -1.000000000000000
      -1.000000000000000       0.000000000000000       0.000000000000000
       0.000000000000000       1.000000000000000      -0.000000000000000
       0.000000000000000       0.000000000000000       0.000000000000000
      -0.000000000000000      -0.000000000000000      -1.000000000000000
       1.000000000000000      -0.000000000000000      -0.000000000000000
      -0.000000000000000      -1.000000000000000       0.000000000000000
       0.000000000000000       0.000000000000000       0.000000000000000
       0.000000000000000      -0.000000000000000       1.000000000000000
      -1.000000000000000      -0.000000000000000       0.000000000000000
      -0.000000000000000      -1.000000000000000       0.000000000000000
       0.000000000000000       0.000000000000000       0.000000000000000
       0.000000000000000       1.000000000000000       0.000000000000000
       1.000000000000000      -0.000000000000000       0.000000000000000
       0.000000000000000      -0.000000000000000       1.000000000000000
       0.000000000000000       0.000000000000000       0.000000000000000
      -0.000000000000000      -1.000000000000000       0.000000000000001
      -1.000000000000000       0.000000000000000       0.000000000000001
       0.000000000000000       0.000000000000000       1.000000000000000
       0.000000000000000       0.000000000000000       0.000000000000000
      -0.000000000000000      -1.000000000000000      -0.000000000000000
       1.000000000000000       0.000000000000000      -0.000000000000000
      -0.000000000000000       0.000000000000000      -1.000000000000000
       0.000000000000000       0.000000000000000       0.000000000000000
       0.000000000000000       1.000000000000000      -0.000000000000000
      -1.000000000000000      -0.000000000000000      -0.000000000000000
      -0.000000000000000      -0.000000000000000      -1.000000000000000
       0.000000000000000       0.000000000000000       0.000000000000000
       1.000000000000000       0.000000000000000      -0.000000000000000
       0.000000000000000       0.000000000000000       1.000000000000000
       0.000000000000000       1.000000000000000      -0.000000000000000
       0.000000000000000       0.000000000000000       0.000000000000000
      -1.000000000000000       0.000000000000000       0.000000000000000
       0.000000000000000       0.000000000000000      -1.000000000000000
       0.000000000000000       1.000000000000000      -0.000000000000000
       0.000000000000000       0.000000000000000       0.000000000000000
      -1.000000000000000      -0.000000000000000       0.000000000000000
       0.000000000000000      -0.000000000000000       1.000000000000000
       0.000000000000000      -1.000000000000000       0.000000000000000
       0.000000000000000       0.000000000000000       0.000000000000000
       1.000000000000000      -0.000000000000000      -0.000000000000000
      -0.000000000000000      -0.000000000000000      -1.000000000000000
      -0.000000000000000      -1.000000000000000       0.000000000000000
       0.000000000000000       0.000000000000000       0.000000000000000
       0.000000000000000       0.000000000000000       1.000000000000000
       0.000000000000000       1.000000000000000      -0.000000000000000
       1.000000000000000       0.000000000000000      -0.000000000000000
       0.000000000000000       0.000000000000000       0.000000000000000
       0.000000000000000       0.000000000000000      -1.000000000000000
       0.000000000000000      -1.000000000000000       0.000000000000000
       1.000000000000000       0.000000000000000      -0.000000000000000
       0.000000000000000       0.000000000000000       0.000000000000000
      -0.000000000000000       0.000000000000000      -1.000000000000000
      -0.000000000000000       1.000000000000000      -0.000000000000000
      -1.000000000000000       0.000000000000000       0.000000000000000
       0.000000000000000       0.000000000000000       0.000000000000000
      -0.000000000000000       0.000000000000000       1.000000000000000
      -0.000000000000000      -1.000000000000000       0.000000000000000
      -1.000000000000000       0.000000000000000       0.000000000000000
       0.000000000000000       0.000000000000000       0.000000000000000
%ENDBLOCK SYMMETRY_OPS

FIX_COM : false
%BLOCK IONIC_CONSTRAINTS
%ENDBLOCK IONIC_CONSTRAINTS

%BLOCK EXTERNAL_EFIELD
    0.0000000000     0.0000000000     0.0000000000 
%ENDBLOCK EXTERNAL_EFIELD

%BLOCK SPECIES_MASS
      Al     26.9820003510
      As     74.9219970703
%ENDBLOCK SPECIES_MASS

%BLOCK SPECIES_POT
      Al  3|2|3.5|5|7|30UU:31UU:32UU[]
      As  3|2|11|13|15|40UU:41UU:32UU(qc=6)[]
%ENDBLOCK SPECIES_POT

%BLOCK SPECIES_LCAO_STATES
      Al         2
      As         4
%ENDBLOCK SPECIES_LCAO_STATES

