%BLOCK LATTICE_CART
      10.000000000000000       0.000000000000000       0.000000000000000
       0.000000000000000      10.000000000000000       0.000000000000000
       0.000000000000000       0.000000000000000      10.000000000000000
%ENDBLOCK LATTICE_CART

%BLOCK POSITIONS_FRAC
 Na   0.4415792781718850  -0.5179034748692580  -0.6175752871526550
%ENDBLOCK POSITIONS_FRAC

%BLOCK SPECTRAL_KPOINT_LIST
   0.0000000000000000   0.0000000000000000   0.0000000000000000       0.153846153846154
   0.0000000000000000   0.1666666666666667   0.0000000000000000       0.076923076923077
   0.0000000000000000   0.3333333333333333   0.0000000000000000       0.076923076923077
   0.0000000000000000   0.5000000000000000   0.0000000000000000       0.076923076923077
   0.0000000000000000   0.5000000000000000   0.1666666666666667       0.076923076923077
   0.0000000000000000   0.5000000000000000   0.3333333333333333       0.076923076923077
   0.0000000000000000   0.5000000000000000   0.5000000000000000       0.076923076923077
   0.0000000000000000   0.3333333333333334   0.5000000000000000       0.076923076923077
   0.0000000000000000   0.1666666666666667   0.5000000000000000       0.076923076923077
   0.0000000000000000   0.0000000000000000   0.5000000000000000       0.076923076923077
   0.0000000000000000   0.0000000000000000   0.3333333333333334       0.076923076923077
   0.0000000000000000   0.0000000000000000   0.1666666666666667       0.076923076923077
%ENDBLOCK SPECTRAL_KPOINT_LIST

%BLOCK KPOINTS_LIST
   0.0000000000000000   0.0000000000000000   0.0000000000000000       1.000000000000000
%ENDBLOCK KPOINTS_LIST

%BLOCK CELL_CONSTRAINTS
       1       2       3
       4       5       6
%ENDBLOCK CELL_CONSTRAINTS

FIX_COM : false
%BLOCK IONIC_CONSTRAINTS
%ENDBLOCK IONIC_CONSTRAINTS

%BLOCK EXTERNAL_EFIELD
    0.0000000000     0.0000000000     0.0000000000 
%ENDBLOCK EXTERNAL_EFIELD

%BLOCK SPECIES_MASS
      Na     22.9899997711
%ENDBLOCK SPECIES_MASS

%BLOCK SPECIES_POT
      Na  Na_00.usp
%ENDBLOCK SPECIES_POT

%BLOCK SPECIES_LCAO_STATES
      Na         4
%ENDBLOCK SPECIES_LCAO_STATES

