%BLOCK LATTICE_CART
       0.000000000000000       2.715350000000000       2.715350000000000
       2.715350000000000       0.000000000000000       2.715349999999999
       2.715350000000000       2.715350000000001      -0.000000000000000
%ENDBLOCK LATTICE_CART

%BLOCK POSITIONS_FRAC
 Si   0.0000000000000000   0.0000000000000000   0.0000000000000000
 Si   0.2500000000000000   1.2500000000000002   0.2500000000000001
%ENDBLOCK POSITIONS_FRAC

%BLOCK SPECTRAL_KPOINT_LIST
   0.5000000000000000   0.2500000000000000   0.7500000000000000       0.046511627906977
   0.5000000000000000   0.2777777777777778   0.7222222222222222       0.023255813953488
   0.5000000000000000   0.3055555555555556   0.6944444444444444       0.023255813953488
   0.5000000000000000   0.3333333333333333   0.6666666666666666       0.023255813953488
   0.5000000000000000   0.3611111111111111   0.6388888888888888       0.023255813953488
   0.5000000000000000   0.3888888888888889   0.6111111111111112       0.023255813953488
   0.5000000000000000   0.4166666666666666   0.5833333333333334       0.023255813953488
   0.5000000000000000   0.4444444444444444   0.5555555555555556       0.023255813953488
   0.5000000000000000   0.4722222222222222   0.5277777777777778       0.023255813953488
   0.5000000000000000   0.5000000000000000   0.5000000000000000       0.023255813953488
   0.4545454545454545   0.4545454545454545   0.4545454545454545       0.023255813953488
   0.4090909090909091   0.4090909090909091   0.4090909090909091       0.023255813953488
   0.3636363636363637   0.3636363636363637   0.3636363636363637       0.023255813953488
   0.3181818181818182   0.3181818181818182   0.3181818181818182       0.023255813953488
   0.2727272727272727   0.2727272727272727   0.2727272727272727       0.023255813953488
   0.2272727272727273   0.2272727272727273   0.2272727272727273       0.023255813953488
   0.1818181818181818   0.1818181818181818   0.1818181818181818       0.023255813953488
   0.1363636363636364   0.1363636363636364   0.1363636363636364       0.023255813953488
   0.0909090909090909   0.0909090909090909   0.0909090909090909       0.023255813953488
   0.0454545454545454   0.0454545454545454   0.0454545454545454       0.023255813953488
   0.0000000000000000   0.0000000000000000   0.0000000000000000       0.023255813953488
   0.0416666666666667   0.0000000000000000   0.0416666666666667       0.023255813953488
   0.0833333333333333   0.0000000000000000   0.0833333333333333       0.023255813953488
   0.1250000000000000   0.0000000000000000   0.1250000000000000       0.023255813953488
   0.1666666666666667   0.0000000000000000   0.1666666666666667       0.023255813953488
   0.2083333333333333   0.0000000000000000   0.2083333333333333       0.023255813953488
   0.2500000000000000   0.0000000000000000   0.2500000000000000       0.023255813953488
   0.2916666666666666   0.0000000000000000   0.2916666666666666       0.023255813953488
   0.3333333333333333   0.0000000000000000   0.3333333333333333       0.023255813953488
   0.3750000000000000   0.0000000000000000   0.3750000000000000       0.023255813953488
   0.4166666666666666   0.0000000000000000   0.4166666666666666       0.023255813953488
   0.4583333333333333   0.0000000000000000   0.4583333333333333       0.023255813953488
   0.5000000000000000   0.0000000000000000   0.5000000000000000       0.023255813953488
   0.5000000000000000   0.0416666666666667   0.5416666666666666       0.023255813953488
   0.5000000000000000   0.0833333333333333   0.5833333333333334       0.023255813953488
   0.5000000000000000   0.1250000000000000   0.6250000000000000       0.023255813953488
   0.5000000000000000   0.1666666666666667   0.6666666666666666       0.023255813953488
   0.5000000000000000   0.2083333333333333   0.7083333333333333       0.023255813953488
   0.4687500000000000   0.2812500000000000   0.7500000000000000       0.023255813953488
   0.4375000000000000   0.3125000000000000   0.7500000000000000       0.023255813953488
   0.4062500000000000   0.3437500000000000   0.7500000000000000       0.023255813953488
   0.3750000000000000   0.3750000000000000   0.7500000000000000       0.023255813953488
%ENDBLOCK SPECTRAL_KPOINT_LIST

%BLOCK KPOINTS_LIST
   0.4375000000000000   0.4375000000000000   0.4375000000000000       0.003906250000000
   0.4375000000000000   0.4375000000000000   0.3125000000000000       0.011718750000000
   0.4375000000000000   0.4375000000000000   0.1875000000000000       0.011718750000000
   0.4375000000000000   0.4375000000000000   0.0625000000000000       0.011718750000000
   0.4375000000000000   0.4375000000000000  -0.0625000000000000       0.011718750000000
   0.4375000000000000   0.4375000000000000  -0.1875000000000000       0.011718750000000
   0.4375000000000000   0.4375000000000000  -0.3125000000000000       0.011718750000000
   0.4375000000000000   0.4375000000000000  -0.4375000000000000       0.011718750000000
   0.4375000000000000   0.3125000000000000   0.3125000000000000       0.011718750000000
   0.4375000000000000   0.3125000000000000   0.1875000000000000       0.023437500000000
   0.4375000000000000   0.3125000000000000   0.0625000000000000       0.023437500000000
   0.4375000000000000   0.3125000000000000  -0.0625000000000000       0.023437500000000
   0.4375000000000000   0.3125000000000000  -0.1875000000000000       0.023437500000000
   0.4375000000000000   0.3125000000000000  -0.3125000000000000       0.023437500000000
   0.4375000000000000   0.3125000000000000  -0.4375000000000000       0.023437500000000
   0.4375000000000000   0.1875000000000000   0.1875000000000000       0.011718750000000
   0.4375000000000000   0.1875000000000000   0.0625000000000000       0.023437500000000
   0.4375000000000000   0.1875000000000000  -0.0625000000000000       0.023437500000000
   0.4375000000000000   0.1875000000000000  -0.1875000000000000       0.023437500000000
   0.4375000000000000   0.1875000000000000  -0.3125000000000000       0.023437500000000
   0.4375000000000000   0.1875000000000000  -0.4375000000000000       0.023437500000000
   0.4375000000000000   0.0625000000000000   0.0625000000000000       0.011718750000000
   0.4375000000000000   0.0625000000000000  -0.0625000000000000       0.023437500000000
   0.4375000000000000   0.0625000000000000  -0.1875000000000000       0.023437500000000
   0.4375000000000000   0.0625000000000000  -0.3125000000000000       0.023437500000000
   0.4375000000000000   0.0625000000000000  -0.4375000000000000       0.023437500000000
   0.4375000000000000  -0.0625000000000000  -0.0625000000000000       0.011718750000000
   0.4375000000000000  -0.0625000000000000  -0.1875000000000000       0.023437500000000
   0.4375000000000000  -0.0625000000000000  -0.3125000000000000       0.023437500000000
   0.4375000000000000  -0.1875000000000000  -0.1875000000000000       0.011718750000000
   0.4375000000000000  -0.1875000000000000  -0.3125000000000000       0.023437500000000
   0.4375000000000000  -0.3125000000000000  -0.3125000000000000       0.011718750000000
   0.3125000000000000   0.3125000000000000   0.3125000000000000       0.003906250000000
   0.3125000000000000   0.3125000000000000   0.1875000000000000       0.011718750000000
   0.3125000000000000   0.3125000000000000   0.0625000000000000       0.011718750000000
   0.3125000000000000   0.3125000000000000  -0.0625000000000000       0.011718750000000
   0.3125000000000000   0.3125000000000000  -0.1875000000000000       0.011718750000000
   0.3125000000000000   0.3125000000000000  -0.3125000000000000       0.011718750000000
   0.3125000000000000   0.1875000000000000   0.1875000000000000       0.011718750000000
   0.3125000000000000   0.1875000000000000   0.0625000000000000       0.023437500000000
   0.3125000000000000   0.1875000000000000  -0.0625000000000000       0.023437500000000
   0.3125000000000000   0.1875000000000000  -0.1875000000000000       0.023437500000000
   0.3125000000000000   0.1875000000000000  -0.3125000000000000       0.023437500000000
   0.3125000000000000   0.0625000000000000   0.0625000000000000       0.011718750000000
   0.3125000000000000   0.0625000000000000  -0.0625000000000000       0.023437500000000
   0.3125000000000000   0.0625000000000000  -0.1875000000000000       0.023437500000000
   0.3125000000000000   0.0625000000000000  -0.3125000000000000       0.023437500000000
   0.3125000000000000  -0.0625000000000000  -0.0625000000000000       0.011718750000000
   0.3125000000000000  -0.0625000000000000  -0.1875000000000000       0.023437500000000
   0.3125000000000000  -0.1875000000000000  -0.1875000000000000       0.011718750000000
   0.1875000000000000   0.1875000000000000   0.1875000000000000       0.003906250000000
   0.1875000000000000   0.1875000000000000   0.0625000000000000       0.011718750000000
   0.1875000000000000   0.1875000000000000  -0.0625000000000000       0.011718750000000
   0.1875000000000000   0.1875000000000000  -0.1875000000000000       0.011718750000000
   0.1875000000000000   0.0625000000000000   0.0625000000000000       0.011718750000000
   0.1875000000000000   0.0625000000000000  -0.0625000000000000       0.023437500000000
   0.1875000000000000   0.0625000000000000  -0.1875000000000000       0.023437500000000
   0.1875000000000000  -0.0625000000000000  -0.0625000000000000       0.011718750000000
   0.0625000000000000   0.0625000000000000   0.0625000000000000       0.003906250000000
   0.0625000000000000   0.0625000000000000  -0.0625000000000000       0.011718750000000
%ENDBLOCK KPOINTS_LIST

FIX_COM : false
%BLOCK IONIC_CONSTRAINTS
%ENDBLOCK IONIC_CONSTRAINTS

%BLOCK EXTERNAL_EFIELD
    0.0000000000     0.0000000000     0.0000000000 
%ENDBLOCK EXTERNAL_EFIELD

%BLOCK EXTERNAL_PRESSURE
    0.0000000000    0.0000000000    0.0000000000
                    0.0000000000    0.0000000000
                                    0.0000000000
%ENDBLOCK EXTERNAL_PRESSURE

%BLOCK SPECIES_MASS
      Si     28.0849990845
%ENDBLOCK SPECIES_MASS

%BLOCK SPECIES_POT
      Si  3|1.8|3.6|5|7|30UU:31UU:32UU[]
%ENDBLOCK SPECIES_POT

%BLOCK SPECIES_LCAO_STATES
      Si         2
%ENDBLOCK SPECIES_LCAO_STATES

