%BLOCK LATTICE_CART
      -0.000000000000000       2.315000000000000       2.315000000000000
       2.315000000000000      -0.000000000000000       2.315000000000000
       2.315000000000000       2.315000000000000       0.000000000000000
%ENDBLOCK LATTICE_CART

%BLOCK POSITIONS_FRAC
  O   0.2500000000000000   0.2500000000000000   0.2500000000000001
 Zn   0.0000000000000000   0.0000000000000000   0.0000000000000000
%ENDBLOCK POSITIONS_FRAC

%BLOCK SPECTRAL_KPOINT_LIST
   0.5000000000000000   0.2500000000000000   0.7500000000000000       0.040816326530612
   0.5000000000000000   0.2750000000000000   0.7250000000000000       0.020408163265306
   0.5000000000000000   0.3000000000000000   0.7000000000000000       0.020408163265306
   0.5000000000000000   0.3250000000000000   0.6750000000000000       0.020408163265306
   0.5000000000000000   0.3500000000000000   0.6500000000000000       0.020408163265306
   0.5000000000000000   0.3750000000000000   0.6250000000000000       0.020408163265306
   0.5000000000000000   0.4000000000000000   0.6000000000000000       0.020408163265306
   0.5000000000000000   0.4250000000000000   0.5750000000000000       0.020408163265306
   0.5000000000000000   0.4500000000000000   0.5500000000000000       0.020408163265306
   0.5000000000000000   0.4750000000000000   0.5250000000000000       0.020408163265306
   0.5000000000000000   0.5000000000000000   0.5000000000000000       0.020408163265306
   0.4583333333333333   0.4583333333333333   0.4583333333333333       0.020408163265306
   0.4166666666666667   0.4166666666666667   0.4166666666666667       0.020408163265306
   0.3750000000000000   0.3750000000000000   0.3750000000000000       0.020408163265306
   0.3333333333333334   0.3333333333333334   0.3333333333333334       0.020408163265306
   0.2916666666666667   0.2916666666666667   0.2916666666666667       0.020408163265306
   0.2500000000000000   0.2500000000000000   0.2500000000000000       0.020408163265306
   0.2083333333333334   0.2083333333333334   0.2083333333333334       0.020408163265306
   0.1666666666666667   0.1666666666666667   0.1666666666666667       0.020408163265306
   0.1250000000000000   0.1250000000000000   0.1250000000000000       0.020408163265306
   0.0833333333333334   0.0833333333333334   0.0833333333333334       0.020408163265306
   0.0416666666666667   0.0416666666666667   0.0416666666666667       0.020408163265306
   0.0000000000000000   0.0000000000000000   0.0000000000000000       0.020408163265306
   0.0357142857142857   0.0000000000000000   0.0357142857142857       0.020408163265306
   0.0714285714285714   0.0000000000000000   0.0714285714285714       0.020408163265306
   0.1071428571428571   0.0000000000000000   0.1071428571428571       0.020408163265306
   0.1428571428571429   0.0000000000000000   0.1428571428571429       0.020408163265306
   0.1785714285714286   0.0000000000000000   0.1785714285714286       0.020408163265306
   0.2142857142857143   0.0000000000000000   0.2142857142857143       0.020408163265306
   0.2500000000000000   0.0000000000000000   0.2500000000000000       0.020408163265306
   0.2857142857142857   0.0000000000000000   0.2857142857142857       0.020408163265306
   0.3214285714285714   0.0000000000000000   0.3214285714285714       0.020408163265306
   0.3571428571428571   0.0000000000000000   0.3571428571428571       0.020408163265306
   0.3928571428571429   0.0000000000000000   0.3928571428571429       0.020408163265306
   0.4285714285714286   0.0000000000000000   0.4285714285714286       0.020408163265306
   0.4642857142857143   0.0000000000000000   0.4642857142857143       0.020408163265306
   0.5000000000000000   0.0000000000000000   0.5000000000000000       0.020408163265306
   0.5000000000000000   0.0357142857142857   0.5357142857142857       0.020408163265306
   0.5000000000000000   0.0714285714285714   0.5714285714285714       0.020408163265306
   0.5000000000000000   0.1071428571428571   0.6071428571428571       0.020408163265306
   0.5000000000000000   0.1428571428571429   0.6428571428571428       0.020408163265306
   0.5000000000000000   0.1785714285714286   0.6785714285714286       0.020408163265306
   0.5000000000000000   0.2142857142857143   0.7142857142857143       0.020408163265306
   0.4750000000000000   0.2750000000000000   0.7500000000000000       0.020408163265306
   0.4500000000000000   0.3000000000000000   0.7500000000000000       0.020408163265306
   0.4250000000000000   0.3250000000000000   0.7500000000000000       0.020408163265306
   0.4000000000000000   0.3500000000000000   0.7500000000000000       0.020408163265306
   0.3750000000000000   0.3750000000000000   0.7500000000000000       0.020408163265306
%ENDBLOCK SPECTRAL_KPOINT_LIST

%BLOCK KPOINTS_LIST
   0.4444444444444444   0.4444444444444444   0.4444444444444444       0.010973936899863
   0.4444444444444444   0.4444444444444444   0.3333333333333334       0.032921810699588
   0.4444444444444444   0.4444444444444444   0.2222222222222222       0.032921810699588
   0.4444444444444444   0.4444444444444444   0.1111111111111112       0.032921810699588
   0.4444444444444444   0.4444444444444444   0.0000000000000000       0.008230452674897
   0.4444444444444444   0.4444444444444444  -0.1111111111111111       0.016460905349794
   0.4444444444444444   0.4444444444444444  -0.2222222222222222       0.032921810699588
   0.4444444444444444   0.4444444444444444  -0.3333333333333333       0.032921810699588
   0.4444444444444444   0.4444444444444444  -0.4444444444444444       0.032921810699588
   0.4444444444444444   0.3333333333333334   0.3333333333333334       0.032921810699588
   0.4444444444444444   0.3333333333333334   0.2222222222222222       0.065843621399177
   0.4444444444444444   0.3333333333333334   0.1111111111111112       0.032921810699588
   0.4444444444444444   0.3333333333333334  -0.1111111111111111       0.032921810699588
   0.4444444444444444   0.3333333333333334  -0.2222222222222222       0.032921810699588
   0.4444444444444444   0.3333333333333334  -0.3333333333333333       0.065843621399177
   0.4444444444444444   0.3333333333333334  -0.4444444444444444       0.065843621399177
   0.4444444444444444   0.2222222222222222   0.2222222222222222       0.016460905349794
   0.4444444444444444   0.2222222222222222  -0.1111111111111111       0.065843621399177
   0.4444444444444444   0.2222222222222222  -0.2222222222222222       0.032921810699588
   0.4444444444444444  -0.2222222222222222  -0.2222222222222222       0.032921810699588
   0.4444444444444444  -0.2222222222222222  -0.3333333333333333       0.032921810699588
   0.3333333333333334   0.3333333333333334   0.3333333333333334       0.010973936899863
   0.3333333333333334   0.3333333333333334   0.2222222222222222       0.032921810699588
   0.3333333333333334   0.3333333333333334   0.1111111111111112       0.032921810699588
   0.3333333333333334   0.3333333333333334   0.0000000000000000       0.008230452674897
   0.3333333333333334   0.3333333333333334  -0.3333333333333333       0.016460905349794
   0.3333333333333334   0.2222222222222222   0.2222222222222222       0.032921810699588
   0.3333333333333334   0.2222222222222222   0.1111111111111112       0.032921810699588
   0.2222222222222222   0.2222222222222222   0.2222222222222222       0.010973936899863
   0.2222222222222222   0.2222222222222222   0.1111111111111112       0.032921810699588
   0.2222222222222222   0.2222222222222222   0.0000000000000000       0.008230452674897
   0.2222222222222222   0.1111111111111112   0.1111111111111112       0.016460905349794
   0.1111111111111112   0.1111111111111112   0.1111111111111112       0.010973936899863
   0.1111111111111112   0.1111111111111112   0.0000000000000000       0.008230452674897
   0.0000000000000000   0.0000000000000000   0.0000000000000000       0.001371742112483
%ENDBLOCK KPOINTS_LIST

FIX_COM : false
%BLOCK IONIC_CONSTRAINTS
%ENDBLOCK IONIC_CONSTRAINTS

%BLOCK EXTERNAL_EFIELD
    0.0000000000     0.0000000000     0.0000000000 
%ENDBLOCK EXTERNAL_EFIELD

%BLOCK EXTERNAL_PRESSURE
    0.0000000000    0.0000000000    0.0000000000
                    0.0000000000    0.0000000000
                                    0.0000000000
%ENDBLOCK EXTERNAL_PRESSURE

%BLOCK SPECIES_MASS
       O     15.9989995956
      Zn     65.3799972534
%ENDBLOCK SPECIES_MASS

%BLOCK SPECIES_POT
       O  2|1.1|14|18|21|20UU:21UU(qc=7)[]
      Zn  3|2|2|1|11|12.8|14.5|40UU:41UU:32UU(qc=6)[]
%ENDBLOCK SPECIES_POT

%BLOCK SPECIES_LCAO_STATES
       O         2
      Zn         4
%ENDBLOCK SPECIES_LCAO_STATES

