%BLOCK LATTICE_CART
      10.000000000000000       0.000000000000000       0.000000000000000
       0.000000000000000      10.000000000000000       0.000000000000000
       0.000000000000000       0.000000000000000      10.000000000000000
%ENDBLOCK LATTICE_CART

%BLOCK POSITIONS_FRAC
  H  -0.5323330403335511   0.3936004344196784   0.4381452897626569
  H  -0.5341811837913609   0.5734761195775985   0.3902198503768933
  H  -0.5336667540202572   0.5250375339281915   0.5699679349046520
  H  -0.3031264393082140   0.4717802692039343   0.3622994642521928
  H  -0.3026166767406098   0.4238215883212546   0.5421800922395814
  H  -0.3044703306520618   0.6035665610722574   0.4937799940533553
  C  -0.4953939688332544   0.4977585289678381   0.4661076497584256
  C  -0.3414015309619101   0.4993401990805062   0.4660929517144606
%ENDBLOCK POSITIONS_FRAC

%BLOCK KPOINTS_LIST
   0.0000000000000000   0.0000000000000000   0.0000000000000000       1.000000000000000
%ENDBLOCK KPOINTS_LIST

%BLOCK CELL_CONSTRAINTS
       1       2       3
       4       5       6
%ENDBLOCK CELL_CONSTRAINTS

FIX_COM : false
%BLOCK IONIC_CONSTRAINTS
%ENDBLOCK IONIC_CONSTRAINTS

%BLOCK EXTERNAL_EFIELD
    0.0000000000     0.0000000000     0.0000000000 
%ENDBLOCK EXTERNAL_EFIELD

%BLOCK SPECIES_MASS
       H      1.0080000162
       C     12.0109996796
%ENDBLOCK SPECIES_MASS

%BLOCK SPECIES_POT
       H  1|0.6|9|10|15|10UU(qc=8)[]
       C  2|1.4|11|12|14.7|20UU:21UU(qc=7)[]
%ENDBLOCK SPECIES_POT

%BLOCK SPECIES_LCAO_STATES
       H         1
       C         2
%ENDBLOCK SPECIES_LCAO_STATES

