%BLOCK LATTICE_CART
      -0.000000000000000       2.795883337097250       2.795883337097248
       2.795883337097249       0.000000000000000       2.795883337097248
       2.795883337097249       2.795883337097249      -0.000000000000002
%ENDBLOCK LATTICE_CART

%BLOCK POSITIONS_FRAC
 Ge   0.0000000000000000   0.0000000000000000   0.0000000000000000
 Ge   0.2500000000000000   1.2500000000000000   0.2500000000000001
%ENDBLOCK POSITIONS_FRAC

%BLOCK PHONON_FINE_KPOINT_LIST
   0.5000000000000000   0.2500000000000000   0.7500000000000000       0.048780487804878
   0.5000000000000000   0.2812500000000000   0.7187500000000000       0.024390243902439
   0.5000000000000000   0.3125000000000000   0.6875000000000000       0.024390243902439
   0.5000000000000000   0.3437500000000000   0.6562500000000000       0.024390243902439
   0.5000000000000000   0.3750000000000000   0.6250000000000000       0.024390243902439
   0.5000000000000000   0.4062500000000000   0.5937500000000000       0.024390243902439
   0.5000000000000000   0.4375000000000000   0.5625000000000000       0.024390243902439
   0.5000000000000000   0.4687500000000000   0.5312500000000000       0.024390243902439
   0.5000000000000000   0.5000000000000000   0.5000000000000000       0.024390243902439
   0.4500000000000000   0.4500000000000000   0.4500000000000000       0.024390243902439
   0.4000000000000000   0.4000000000000000   0.4000000000000000       0.024390243902439
   0.3500000000000000   0.3500000000000000   0.3500000000000000       0.024390243902439
   0.3000000000000000   0.3000000000000000   0.3000000000000000       0.024390243902439
   0.2500000000000000   0.2500000000000000   0.2500000000000000       0.024390243902439
   0.2000000000000000   0.2000000000000000   0.2000000000000000       0.024390243902439
   0.1500000000000000   0.1500000000000000   0.1500000000000000       0.024390243902439
   0.1000000000000000   0.1000000000000000   0.1000000000000000       0.024390243902439
   0.0500000000000000   0.0500000000000000   0.0500000000000000       0.024390243902439
   0.0000000000000000   0.0000000000000000   0.0000000000000000       0.024390243902439
   0.0416666666666667   0.0000000000000000   0.0416666666666667       0.024390243902439
   0.0833333333333333   0.0000000000000000   0.0833333333333333       0.024390243902439
   0.1250000000000000   0.0000000000000000   0.1250000000000000       0.024390243902439
   0.1666666666666667   0.0000000000000000   0.1666666666666667       0.024390243902439
   0.2083333333333333   0.0000000000000000   0.2083333333333333       0.024390243902439
   0.2500000000000000   0.0000000000000000   0.2500000000000000       0.024390243902439
   0.2916666666666666   0.0000000000000000   0.2916666666666666       0.024390243902439
   0.3333333333333333   0.0000000000000000   0.3333333333333333       0.024390243902439
   0.3750000000000000   0.0000000000000000   0.3750000000000000       0.024390243902439
   0.4166666666666666   0.0000000000000000   0.4166666666666666       0.024390243902439
   0.4583333333333333   0.0000000000000000   0.4583333333333333       0.024390243902439
   0.5000000000000000   0.0000000000000000   0.5000000000000000       0.024390243902439
   0.5000000000000000   0.0416666666666667   0.5416666666666666       0.024390243902439
   0.5000000000000000   0.0833333333333333   0.5833333333333334       0.024390243902439
   0.5000000000000000   0.1250000000000000   0.6250000000000000       0.024390243902439
   0.5000000000000000   0.1666666666666667   0.6666666666666666       0.024390243902439
   0.5000000000000000   0.2083333333333333   0.7083333333333333       0.024390243902439
   0.4687500000000000   0.2812500000000000   0.7500000000000000       0.024390243902439
   0.4375000000000000   0.3125000000000000   0.7500000000000000       0.024390243902439
   0.4062500000000000   0.3437500000000000   0.7500000000000000       0.024390243902439
   0.3750000000000000   0.3750000000000000   0.7500000000000000       0.024390243902439
%ENDBLOCK PHONON_FINE_KPOINT_LIST

PHONON_KPOINT_MP_GRID :        6       6       6
PHONON_KPOINT_MP_OFFSET :        0.083333333333333       0.083333333333333       0.083333333333333
%BLOCK PHONON_GAMMA_DIRECTIONS
  -0.5773502691896257  -0.5773502691896257  -0.5773502691896257
   0.7071067811865475   0.0000000000000000   0.7071067811865475
%ENDBLOCK PHONON_GAMMA_DIRECTIONS

%BLOCK KPOINTS_LIST
   0.3333333333333333   0.3333333333333333   0.3333333333333333       0.296296296296296
   0.3333333333333333   0.3333333333333333   0.0000000000000000       0.222222222222222
   0.3333333333333333   0.3333333333333333  -0.3333333333333333       0.444444444444444
   0.0000000000000000   0.0000000000000000   0.0000000000000000       0.037037037037037
%ENDBLOCK KPOINTS_LIST

%BLOCK SYMMETRY_OPS
       1.000000000000000       0.000000000000000       0.000000000000000
       0.000000000000000       1.000000000000000       0.000000000000000
       0.000000000000000       0.000000000000000       1.000000000000000
       0.000000000000000       0.000000000000000       0.000000000000000
      -1.000000000000000      -0.000000000000000       0.000000000000001
       0.000000000000000      -1.000000000000000       0.000000000000000
       0.000000000000000       0.000000000000000       1.000000000000000
       0.000000000000000       0.000000000000000       0.000000000000000
      -1.000000000000000       0.000000000000000       0.000000000000000
       0.000000000000000       1.000000000000000      -0.000000000000000
       0.000000000000000      -0.000000000000000      -1.000000000000000
       0.000000000000000       0.000000000000000       0.000000000000000
       1.000000000000000      -0.000000000000000      -0.000000000000001
       0.000000000000000      -1.000000000000000      -0.000000000000000
       0.000000000000000       0.000000000000000      -1.000000000000000
       0.000000000000000       0.000000000000000       0.000000000000000
       0.000000000000000       1.000000000000000      -0.000000000000000
       0.000000000000000       0.000000000000000       1.000000000000000
       1.000000000000000      -0.000000000000000      -0.000000000000000
       0.000000000000000       0.000000000000000       0.000000000000000
       0.000000000000000      -1.000000000000000       0.000000000000000
       0.000000000000000      -0.000000000000000      -1.000000000000000
       1.000000000000000      -0.000000000000000      -0.000000000000000
       0.000000000000000       0.000000000000000       0.000000000000000
      -0.000000000000000      -1.000000000000000       0.000000000000000
      -0.000000000000000       0.000000000000000       1.000000000000000
      -1.000000000000000       0.000000000000000       0.000000000000000
       0.000000000000000       0.000000000000000       0.000000000000000
      -0.000000000000000       1.000000000000000      -0.000000000000000
      -0.000000000000000      -0.000000000000000      -1.000000000000000
      -1.000000000000000       0.000000000000000       0.000000000000000
       0.000000000000000       0.000000000000000       0.000000000000000
       0.000000000000000       0.000000000000000       1.000000000000000
       1.000000000000000       0.000000000000000      -0.000000000000000
      -0.000000000000000       1.000000000000000      -0.000000000000000
       0.000000000000000       0.000000000000000       0.000000000000000
      -0.000000000000000       0.000000000000000      -1.000000000000000
      -1.000000000000000       0.000000000000000       0.000000000000000
       0.000000000000000       1.000000000000000      -0.000000000000000
       0.000000000000000       0.000000000000000       0.000000000000000
       0.000000000000000      -0.000000000000000      -1.000000000000000
       1.000000000000000      -0.000000000000000      -0.000000000000000
      -0.000000000000000      -1.000000000000000       0.000000000000000
       0.000000000000000       0.000000000000000       0.000000000000000
      -0.000000000000000      -0.000000000000000       1.000000000000000
      -1.000000000000000      -0.000000000000000       0.000000000000000
       0.000000000000000      -1.000000000000000       0.000000000000000
       0.000000000000000       0.000000000000000       0.000000000000000
       0.000000000000000       1.000000000000000      -0.000000000000001
       1.000000000000000      -0.000000000000000      -0.000000000000001
      -0.000000000000000      -0.000000000000000      -1.000000000000000
       0.250000000000000       0.250000000000000       0.250000000000000
      -0.000000000000000      -1.000000000000000      -0.000000000000000
      -1.000000000000000       0.000000000000000       0.000000000000000
       0.000000000000000      -0.000000000000000      -1.000000000000000
       0.250000000000000       0.250000000000000       0.250000000000000
       0.000000000000000      -1.000000000000000       0.000000000000001
       1.000000000000000      -0.000000000000000      -0.000000000000000
      -0.000000000000000       0.000000000000000       1.000000000000000
       0.250000000000000       0.250000000000000       0.250000000000000
      -0.000000000000000       1.000000000000000       0.000000000000000
      -1.000000000000000       0.000000000000000       0.000000000000001
       0.000000000000000       0.000000000000000       1.000000000000000
       0.250000000000000       0.250000000000000       0.250000000000000
       1.000000000000000       0.000000000000000      -0.000000000000000
       0.000000000000000       0.000000000000000      -1.000000000000000
       0.000000000000000       1.000000000000000      -0.000000000000000
       0.250000000000000       0.250000000000000       0.250000000000000
      -1.000000000000000       0.000000000000000       0.000000000000000
       0.000000000000000       0.000000000000000       1.000000000000000
       0.000000000000000       1.000000000000000      -0.000000000000000
       0.250000000000000       0.250000000000000       0.250000000000000
      -1.000000000000000      -0.000000000000000       0.000000000000000
       0.000000000000000      -0.000000000000000      -1.000000000000000
       0.000000000000000      -1.000000000000000       0.000000000000000
       0.250000000000000       0.250000000000000       0.250000000000000
       1.000000000000000      -0.000000000000000      -0.000000000000000
       0.000000000000000      -0.000000000000000       1.000000000000000
       0.000000000000000      -1.000000000000000       0.000000000000000
       0.250000000000000       0.250000000000000       0.250000000000000
       0.000000000000000       0.000000000000000      -1.000000000000000
       0.000000000000000       1.000000000000000      -0.000000000000000
       1.000000000000000      -0.000000000000000      -0.000000000000000
       0.250000000000000       0.250000000000000       0.250000000000000
       0.000000000000000       0.000000000000000       1.000000000000000
       0.000000000000000      -1.000000000000000       0.000000000000000
       1.000000000000000       0.000000000000000      -0.000000000000000
       0.250000000000000       0.250000000000000       0.250000000000000
      -0.000000000000000       0.000000000000000       1.000000000000000
      -0.000000000000000       1.000000000000000      -0.000000000000000
      -1.000000000000000       0.000000000000000       0.000000000000000
       0.250000000000000       0.250000000000000       0.250000000000000
      -0.000000000000000      -0.000000000000000      -1.000000000000000
      -0.000000000000000      -1.000000000000000       0.000000000000000
      -1.000000000000000       0.000000000000000       0.000000000000000
       0.250000000000000       0.250000000000000       0.250000000000000
      -1.000000000000000       0.000000000000000      -0.000000000000000
       0.000000000000000      -1.000000000000000      -0.000000000000000
       0.000000000000000       0.000000000000000      -1.000000000000000
       0.250000000000000       0.250000000000000       0.250000000000000
       1.000000000000000       0.000000000000000      -0.000000000000001
       0.000000000000000       1.000000000000000      -0.000000000000000
       0.000000000000000      -0.000000000000000      -1.000000000000000
       0.250000000000000       0.250000000000000       0.250000000000000
       1.000000000000000      -0.000000000000000      -0.000000000000000
       0.000000000000000      -1.000000000000000       0.000000000000000
       0.000000000000000       0.000000000000000       1.000000000000000
       0.250000000000000       0.250000000000000       0.250000000000000
      -1.000000000000000       0.000000000000000       0.000000000000001
       0.000000000000000       1.000000000000000       0.000000000000000
       0.000000000000000       0.000000000000000       1.000000000000000
       0.250000000000000       0.250000000000000       0.250000000000000
      -0.000000000000000      -1.000000000000000       0.000000000000000
      -0.000000000000000      -0.000000000000000      -1.000000000000000
      -1.000000000000000       0.000000000000000       0.000000000000000
       0.250000000000000       0.250000000000000       0.250000000000000
      -0.000000000000000       1.000000000000000      -0.000000000000000
      -0.000000000000000       0.000000000000000       1.000000000000000
      -1.000000000000000       0.000000000000000       0.000000000000000
       0.250000000000000       0.250000000000000       0.250000000000000
       0.000000000000000       1.000000000000000      -0.000000000000000
       0.000000000000000      -0.000000000000000      -1.000000000000000
       1.000000000000000      -0.000000000000000      -0.000000000000000
       0.250000000000000       0.250000000000000       0.250000000000000
       0.000000000000000      -1.000000000000000       0.000000000000000
       0.000000000000000       0.000000000000000       1.000000000000000
       1.000000000000000      -0.000000000000000      -0.000000000000000
       0.250000000000000       0.250000000000000       0.250000000000000
      -0.000000000000000      -0.000000000000000      -1.000000000000000
      -1.000000000000000      -0.000000000000000       0.000000000000000
       0.000000000000000      -1.000000000000000       0.000000000000000
       0.250000000000000       0.250000000000000       0.250000000000000
       0.000000000000000      -0.000000000000000       1.000000000000000
       1.000000000000000      -0.000000000000000      -0.000000000000000
      -0.000000000000000      -1.000000000000000       0.000000000000000
       0.250000000000000       0.250000000000000       0.250000000000000
      -0.000000000000000       0.000000000000000       1.000000000000000
      -1.000000000000000       0.000000000000000       0.000000000000000
       0.000000000000000       1.000000000000000      -0.000000000000000
       0.250000000000000       0.250000000000000       0.250000000000000
       0.000000000000000       0.000000000000000      -1.000000000000000
       1.000000000000000       0.000000000000000      -0.000000000000000
      -0.000000000000000       1.000000000000000      -0.000000000000000
       0.250000000000000       0.250000000000000       0.250000000000000
      -0.000000000000000      -1.000000000000000       0.000000000000001
      -1.000000000000000       0.000000000000000       0.000000000000001
       0.000000000000000       0.000000000000000       1.000000000000000
       0.000000000000000       0.000000000000000       0.000000000000000
       0.000000000000000       1.000000000000000       0.000000000000000
       1.000000000000000      -0.000000000000000      -0.000000000000000
      -0.000000000000000       0.000000000000000       1.000000000000000
       0.000000000000000       0.000000000000000       0.000000000000000
      -0.000000000000000       1.000000000000000      -0.000000000000001
      -1.000000000000000       0.000000000000000       0.000000000000000
       0.000000000000000      -0.000000000000000      -1.000000000000000
       0.000000000000000       0.000000000000000       0.000000000000000
       0.000000000000000      -1.000000000000000      -0.000000000000000
       1.000000000000000      -0.000000000000000      -0.000000000000001
      -0.000000000000000      -0.000000000000000      -1.000000000000000
       0.000000000000000       0.000000000000000       0.000000000000000
      -1.000000000000000      -0.000000000000000       0.000000000000000
       0.000000000000000      -0.000000000000000       1.000000000000000
       0.000000000000000      -1.000000000000000       0.000000000000000
       0.000000000000000       0.000000000000000       0.000000000000000
       1.000000000000000      -0.000000000000000      -0.000000000000000
       0.000000000000000      -0.000000000000000      -1.000000000000000
       0.000000000000000      -1.000000000000000       0.000000000000000
       0.000000000000000       0.000000000000000       0.000000000000000
       1.000000000000000       0.000000000000000      -0.000000000000000
       0.000000000000000       0.000000000000000       1.000000000000000
       0.000000000000000       1.000000000000000      -0.000000000000000
       0.000000000000000       0.000000000000000       0.000000000000000
      -1.000000000000000       0.000000000000000       0.000000000000000
       0.000000000000000       0.000000000000000      -1.000000000000000
       0.000000000000000       1.000000000000000      -0.000000000000000
       0.000000000000000       0.000000000000000       0.000000000000000
      -0.000000000000000      -0.000000000000000       1.000000000000000
      -0.000000000000000      -1.000000000000000       0.000000000000000
      -1.000000000000000       0.000000000000000       0.000000000000000
       0.000000000000000       0.000000000000000       0.000000000000000
      -0.000000000000000       0.000000000000000      -1.000000000000000
      -0.000000000000000       1.000000000000000      -0.000000000000000
      -1.000000000000000       0.000000000000000       0.000000000000000
       0.000000000000000       0.000000000000000       0.000000000000000
       0.000000000000000      -0.000000000000000      -1.000000000000000
       0.000000000000000      -1.000000000000000       0.000000000000000
       1.000000000000000       0.000000000000000      -0.000000000000000
       0.000000000000000       0.000000000000000       0.000000000000000
       0.000000000000000       0.000000000000000       1.000000000000000
       0.000000000000000       1.000000000000000      -0.000000000000000
       1.000000000000000      -0.000000000000000      -0.000000000000000
       0.000000000000000       0.000000000000000       0.000000000000000
%ENDBLOCK SYMMETRY_OPS

FIX_COM : false
%BLOCK IONIC_CONSTRAINTS
%ENDBLOCK IONIC_CONSTRAINTS

%BLOCK EXTERNAL_EFIELD
    0.0000000000     0.0000000000     0.0000000000 
%ENDBLOCK EXTERNAL_EFIELD

%BLOCK SPECIES_MASS
      Ge     72.5899963379
%ENDBLOCK SPECIES_MASS

%BLOCK SPECIES_POT
      Ge  Ge_00_OP.recpot
%ENDBLOCK SPECIES_POT

%BLOCK SPECIES_LCAO_STATES
      Ge         3
%ENDBLOCK SPECIES_LCAO_STATES

