%BLOCK LATTICE_CART
       3.963276913723727       0.000000000000000       0.000000000000000
       0.000000000000000       2.802459981414137       0.000000000000000
       0.000000000000000       0.000000000000000      10.802459935917893
%ENDBLOCK LATTICE_CART

%BLOCK POSITIONS_FRAC
  C   0.4999999999999999   0.0000000000000000   0.3870104703613800
  O   0.4999999999999999   0.0000000000000000   0.4950211405028850
 Pd   0.4999999999999999   0.5000000000000000  -0.0000000000000002
 Pd   0.4999999999999999   0.4999999999999999   0.2507996217665386
 Pd   0.0000000000000000   0.0000000000000000   0.1297139724673280
%ENDBLOCK POSITIONS_FRAC

%BLOCK KPOINTS_LIST
   0.3333333333333333   0.3750000000000000   0.0000000000000000       0.166666666666667
   0.3333333333333333   0.1250000000000000   0.0000000000000000       0.166666666666667
   0.3333333333333333  -0.1250000000000000   0.0000000000000000       0.166666666666667
   0.3333333333333333  -0.3750000000000000   0.0000000000000000       0.166666666666667
   0.0000000000000000   0.3750000000000000   0.0000000000000000       0.166666666666667
   0.0000000000000000   0.1250000000000000   0.0000000000000000       0.166666666666667
%ENDBLOCK KPOINTS_LIST

%BLOCK CELL_CONSTRAINTS
       1       2       3
       4       5       6
%ENDBLOCK CELL_CONSTRAINTS

FIX_COM : false
%BLOCK IONIC_CONSTRAINTS
       1      Pd       1   1.0000000000000000   0.0000000000000000   0.0000000000000000
       2      Pd       1   0.0000000000000000   1.0000000000000000   0.0000000000000000
       3      Pd       1   0.0000000000000000   0.0000000000000000   1.0000000000000000
       4      Pd       3   1.0000000000000000   0.0000000000000000   0.0000000000000000
       5      Pd       3   0.0000000000000000   1.0000000000000000   0.0000000000000000
       6      Pd       3   0.0000000000000000   0.0000000000000000   1.0000000000000000
%ENDBLOCK IONIC_CONSTRAINTS

%BLOCK EXTERNAL_EFIELD
    0.0000000000     0.0000000000     0.0000000000 
%ENDBLOCK EXTERNAL_EFIELD

%BLOCK SPECIES_MASS
       C     12.0109996796
       O     15.9989995956
      Pd    106.4000015259
%ENDBLOCK SPECIES_MASS

%BLOCK SPECIES_POT
       C  2|1.4|11|12|14.7|20UU:21UU(qc=7)[]
       O  2|1.1|14|18|21|20UU:21UU(qc=7)[]
      Pd  3|1.6|15|18.8|20.6|40U:50UU:41UU:42UU{5s0.5}(qc=7)[]
%ENDBLOCK SPECIES_POT

%BLOCK SPECIES_LCAO_STATES
       C         2
       O         2
      Pd         5
%ENDBLOCK SPECIES_LCAO_STATES

