%BLOCK LATTICE_CART
       0.000000000000000       2.866066700747180       2.866066700747180
       2.866066700747180       0.000000000000000       2.866066700747180
       2.866066700747180       2.866066700747180      -0.000000000000001
%ENDBLOCK LATTICE_CART

%BLOCK POSITIONS_FRAC
 Al   0.0000000000000000   0.0000000000000000   0.0000000000000000
 As   0.2500000000000001   0.2500000000000001   0.2499999999999999
%ENDBLOCK POSITIONS_FRAC

%BLOCK SPECTRAL_KPOINT_LIST
   0.5000000000000000   0.2500000000000000   0.7500000000000000       0.048780487804878
   0.5000000000000000   0.2812500000000000   0.7187500000000000       0.024390243902439
   0.5000000000000000   0.3125000000000000   0.6875000000000000       0.024390243902439
   0.5000000000000000   0.3437500000000000   0.6562500000000000       0.024390243902439
   0.5000000000000000   0.3750000000000000   0.6250000000000000       0.024390243902439
   0.5000000000000000   0.4062500000000000   0.5937500000000000       0.024390243902439
   0.5000000000000000   0.4375000000000000   0.5625000000000000       0.024390243902439
   0.5000000000000000   0.4687500000000000   0.5312500000000000       0.024390243902439
   0.5000000000000000   0.5000000000000000   0.5000000000000000       0.024390243902439
   0.4500000000000000   0.4500000000000000   0.4500000000000000       0.024390243902439
   0.4000000000000000   0.4000000000000000   0.4000000000000000       0.024390243902439
   0.3500000000000000   0.3500000000000000   0.3500000000000000       0.024390243902439
   0.3000000000000000   0.3000000000000000   0.3000000000000000       0.024390243902439
   0.2500000000000000   0.2500000000000000   0.2500000000000000       0.024390243902439
   0.2000000000000000   0.2000000000000000   0.2000000000000000       0.024390243902439
   0.1500000000000000   0.1500000000000000   0.1500000000000000       0.024390243902439
   0.1000000000000000   0.1000000000000000   0.1000000000000000       0.024390243902439
   0.0500000000000000   0.0500000000000000   0.0500000000000000       0.024390243902439
   0.0000000000000000   0.0000000000000000   0.0000000000000000       0.024390243902439
   0.0416666666666667   0.0000000000000000   0.0416666666666667       0.024390243902439
   0.0833333333333333   0.0000000000000000   0.0833333333333333       0.024390243902439
   0.1250000000000000   0.0000000000000000   0.1250000000000000       0.024390243902439
   0.1666666666666667   0.0000000000000000   0.1666666666666667       0.024390243902439
   0.2083333333333333   0.0000000000000000   0.2083333333333333       0.024390243902439
   0.2500000000000000   0.0000000000000000   0.2500000000000000       0.024390243902439
   0.2916666666666666   0.0000000000000000   0.2916666666666666       0.024390243902439
   0.3333333333333333   0.0000000000000000   0.3333333333333333       0.024390243902439
   0.3750000000000000   0.0000000000000000   0.3750000000000000       0.024390243902439
   0.4166666666666666   0.0000000000000000   0.4166666666666666       0.024390243902439
   0.4583333333333333   0.0000000000000000   0.4583333333333333       0.024390243902439
   0.5000000000000000   0.0000000000000000   0.5000000000000000       0.024390243902439
   0.5000000000000000   0.0416666666666667   0.5416666666666666       0.024390243902439
   0.5000000000000000   0.0833333333333333   0.5833333333333334       0.024390243902439
   0.5000000000000000   0.1250000000000000   0.6250000000000000       0.024390243902439
   0.5000000000000000   0.1666666666666667   0.6666666666666666       0.024390243902439
   0.5000000000000000   0.2083333333333333   0.7083333333333333       0.024390243902439
   0.4687500000000000   0.2812500000000000   0.7500000000000000       0.024390243902439
   0.4375000000000000   0.3125000000000000   0.7500000000000000       0.024390243902439
   0.4062500000000000   0.3437500000000000   0.7500000000000000       0.024390243902439
   0.3750000000000000   0.3750000000000000   0.7500000000000000       0.024390243902439
%ENDBLOCK SPECTRAL_KPOINT_LIST

%BLOCK KPOINTS_LIST
   0.4375000000000000   0.4375000000000000   0.4375000000000000       0.003906250000000
   0.4375000000000000   0.4375000000000000   0.3125000000000000       0.011718750000000
   0.4375000000000000   0.4375000000000000   0.1875000000000000       0.011718750000000
   0.4375000000000000   0.4375000000000000   0.0625000000000000       0.011718750000000
   0.4375000000000000   0.4375000000000000  -0.0625000000000000       0.011718750000000
   0.4375000000000000   0.4375000000000000  -0.1875000000000000       0.011718750000000
   0.4375000000000000   0.4375000000000000  -0.3125000000000000       0.011718750000000
   0.4375000000000000   0.4375000000000000  -0.4375000000000000       0.011718750000000
   0.4375000000000000   0.3125000000000000   0.3125000000000000       0.011718750000000
   0.4375000000000000   0.3125000000000000   0.1875000000000000       0.023437500000000
   0.4375000000000000   0.3125000000000000   0.0625000000000000       0.023437500000000
   0.4375000000000000   0.3125000000000000  -0.0625000000000000       0.023437500000000
   0.4375000000000000   0.3125000000000000  -0.1875000000000000       0.023437500000000
   0.4375000000000000   0.3125000000000000  -0.3125000000000000       0.023437500000000
   0.4375000000000000   0.3125000000000000  -0.4375000000000000       0.023437500000000
   0.4375000000000000   0.1875000000000000   0.1875000000000000       0.011718750000000
   0.4375000000000000   0.1875000000000000   0.0625000000000000       0.023437500000000
   0.4375000000000000   0.1875000000000000  -0.0625000000000000       0.023437500000000
   0.4375000000000000   0.1875000000000000  -0.1875000000000000       0.023437500000000
   0.4375000000000000   0.1875000000000000  -0.3125000000000000       0.023437500000000
   0.4375000000000000   0.1875000000000000  -0.4375000000000000       0.023437500000000
   0.4375000000000000   0.0625000000000000   0.0625000000000000       0.011718750000000
   0.4375000000000000   0.0625000000000000  -0.0625000000000000       0.023437500000000
   0.4375000000000000   0.0625000000000000  -0.1875000000000000       0.023437500000000
   0.4375000000000000   0.0625000000000000  -0.3125000000000000       0.023437500000000
   0.4375000000000000   0.0625000000000000  -0.4375000000000000       0.023437500000000
   0.4375000000000000  -0.0625000000000000  -0.0625000000000000       0.011718750000000
   0.4375000000000000  -0.0625000000000000  -0.1875000000000000       0.023437500000000
   0.4375000000000000  -0.0625000000000000  -0.3125000000000000       0.023437500000000
   0.4375000000000000  -0.1875000000000000  -0.1875000000000000       0.011718750000000
   0.4375000000000000  -0.1875000000000000  -0.3125000000000000       0.023437500000000
   0.4375000000000000  -0.3125000000000000  -0.3125000000000000       0.011718750000000
   0.3125000000000000   0.3125000000000000   0.3125000000000000       0.003906250000000
   0.3125000000000000   0.3125000000000000   0.1875000000000000       0.011718750000000
   0.3125000000000000   0.3125000000000000   0.0625000000000000       0.011718750000000
   0.3125000000000000   0.3125000000000000  -0.0625000000000000       0.011718750000000
   0.3125000000000000   0.3125000000000000  -0.1875000000000000       0.011718750000000
   0.3125000000000000   0.3125000000000000  -0.3125000000000000       0.011718750000000
   0.3125000000000000   0.1875000000000000   0.1875000000000000       0.011718750000000
   0.3125000000000000   0.1875000000000000   0.0625000000000000       0.023437500000000
   0.3125000000000000   0.1875000000000000  -0.0625000000000000       0.023437500000000
   0.3125000000000000   0.1875000000000000  -0.1875000000000000       0.023437500000000
   0.3125000000000000   0.1875000000000000  -0.3125000000000000       0.023437500000000
   0.3125000000000000   0.0625000000000000   0.0625000000000000       0.011718750000000
   0.3125000000000000   0.0625000000000000  -0.0625000000000000       0.023437500000000
   0.3125000000000000   0.0625000000000000  -0.1875000000000000       0.023437500000000
   0.3125000000000000   0.0625000000000000  -0.3125000000000000       0.023437500000000
   0.3125000000000000  -0.0625000000000000  -0.0625000000000000       0.011718750000000
   0.3125000000000000  -0.0625000000000000  -0.1875000000000000       0.023437500000000
   0.3125000000000000  -0.1875000000000000  -0.1875000000000000       0.011718750000000
   0.1875000000000000   0.1875000000000000   0.1875000000000000       0.003906250000000
   0.1875000000000000   0.1875000000000000   0.0625000000000000       0.011718750000000
   0.1875000000000000   0.1875000000000000  -0.0625000000000000       0.011718750000000
   0.1875000000000000   0.1875000000000000  -0.1875000000000000       0.011718750000000
   0.1875000000000000   0.0625000000000000   0.0625000000000000       0.011718750000000
   0.1875000000000000   0.0625000000000000  -0.0625000000000000       0.023437500000000
   0.1875000000000000   0.0625000000000000  -0.1875000000000000       0.023437500000000
   0.1875000000000000  -0.0625000000000000  -0.0625000000000000       0.011718750000000
   0.0625000000000000   0.0625000000000000   0.0625000000000000       0.003906250000000
   0.0625000000000000   0.0625000000000000  -0.0625000000000000       0.011718750000000
%ENDBLOCK KPOINTS_LIST

FIX_COM : false
%BLOCK IONIC_CONSTRAINTS
%ENDBLOCK IONIC_CONSTRAINTS

%BLOCK EXTERNAL_EFIELD
    0.0000000000     0.0000000000     0.0000000000 
%ENDBLOCK EXTERNAL_EFIELD

%BLOCK SPECIES_MASS
      Al     26.9820003510
      As     74.9219970703
%ENDBLOCK SPECIES_MASS

%BLOCK SPECIES_POT
      Al  3|2|3.5|5|7|30UU:31UU:32UU[]
      As  3|2|11|13|15|40UU:41UU:32UU(qc=6)[]
%ENDBLOCK SPECIES_POT

%BLOCK SPECIES_LCAO_STATES
      Al         2
      As         4
%ENDBLOCK SPECIES_LCAO_STATES

