%BLOCK LATTICE_CART
       0.000000000000000       2.715350000000000       2.715350000000000
       2.715350000000000       0.000000000000000       2.715349999999999
       2.715350000000000       2.715350000000001      -0.000000000000000
%ENDBLOCK LATTICE_CART

%BLOCK POSITIONS_FRAC
 Si   0.0000000000000000   0.0000000000000000   0.0000000000000000
 Si   0.2500000000000000   1.2500000000000002   0.2500000000000001
%ENDBLOCK POSITIONS_FRAC

%BLOCK KPOINTS_LIST
   0.4375000000000000   0.4375000000000000   0.4375000000000000       0.003906250000000
   0.4375000000000000   0.4375000000000000   0.3125000000000000       0.011718750000000
   0.4375000000000000   0.4375000000000000   0.1875000000000000       0.011718750000000
   0.4375000000000000   0.4375000000000000   0.0625000000000000       0.011718750000000
   0.4375000000000000   0.4375000000000000  -0.0625000000000000       0.011718750000000
   0.4375000000000000   0.4375000000000000  -0.1875000000000000       0.011718750000000
   0.4375000000000000   0.4375000000000000  -0.3125000000000000       0.011718750000000
   0.4375000000000000   0.4375000000000000  -0.4375000000000000       0.011718750000000
   0.4375000000000000   0.3125000000000000   0.3125000000000000       0.011718750000000
   0.4375000000000000   0.3125000000000000   0.1875000000000000       0.023437500000000
   0.4375000000000000   0.3125000000000000   0.0625000000000000       0.023437500000000
   0.4375000000000000   0.3125000000000000  -0.0625000000000000       0.023437500000000
   0.4375000000000000   0.3125000000000000  -0.1875000000000000       0.023437500000000
   0.4375000000000000   0.3125000000000000  -0.3125000000000000       0.023437500000000
   0.4375000000000000   0.3125000000000000  -0.4375000000000000       0.023437500000000
   0.4375000000000000   0.1875000000000000   0.1875000000000000       0.011718750000000
   0.4375000000000000   0.1875000000000000   0.0625000000000000       0.023437500000000
   0.4375000000000000   0.1875000000000000  -0.0625000000000000       0.023437500000000
   0.4375000000000000   0.1875000000000000  -0.1875000000000000       0.023437500000000
   0.4375000000000000   0.1875000000000000  -0.3125000000000000       0.023437500000000
   0.4375000000000000   0.1875000000000000  -0.4375000000000000       0.023437500000000
   0.4375000000000000   0.0625000000000000   0.0625000000000000       0.011718750000000
   0.4375000000000000   0.0625000000000000  -0.0625000000000000       0.023437500000000
   0.4375000000000000   0.0625000000000000  -0.1875000000000000       0.023437500000000
   0.4375000000000000   0.0625000000000000  -0.3125000000000000       0.023437500000000
   0.4375000000000000   0.0625000000000000  -0.4375000000000000       0.023437500000000
   0.4375000000000000  -0.0625000000000000  -0.0625000000000000       0.011718750000000
   0.4375000000000000  -0.0625000000000000  -0.1875000000000000       0.023437500000000
   0.4375000000000000  -0.0625000000000000  -0.3125000000000000       0.023437500000000
   0.4375000000000000  -0.1875000000000000  -0.1875000000000000       0.011718750000000
   0.4375000000000000  -0.1875000000000000  -0.3125000000000000       0.023437500000000
   0.4375000000000000  -0.3125000000000000  -0.3125000000000000       0.011718750000000
   0.3125000000000000   0.3125000000000000   0.3125000000000000       0.003906250000000
   0.3125000000000000   0.3125000000000000   0.1875000000000000       0.011718750000000
   0.3125000000000000   0.3125000000000000   0.0625000000000000       0.011718750000000
   0.3125000000000000   0.3125000000000000  -0.0625000000000000       0.011718750000000
   0.3125000000000000   0.3125000000000000  -0.1875000000000000       0.011718750000000
   0.3125000000000000   0.3125000000000000  -0.3125000000000000       0.011718750000000
   0.3125000000000000   0.1875000000000000   0.1875000000000000       0.011718750000000
   0.3125000000000000   0.1875000000000000   0.0625000000000000       0.023437500000000
   0.3125000000000000   0.1875000000000000  -0.0625000000000000       0.023437500000000
   0.3125000000000000   0.1875000000000000  -0.1875000000000000       0.023437500000000
   0.3125000000000000   0.1875000000000000  -0.3125000000000000       0.023437500000000
   0.3125000000000000   0.0625000000000000   0.0625000000000000       0.011718750000000
   0.3125000000000000   0.0625000000000000  -0.0625000000000000       0.023437500000000
   0.3125000000000000   0.0625000000000000  -0.1875000000000000       0.023437500000000
   0.3125000000000000   0.0625000000000000  -0.3125000000000000       0.023437500000000
   0.3125000000000000  -0.0625000000000000  -0.0625000000000000       0.011718750000000
   0.3125000000000000  -0.0625000000000000  -0.1875000000000000       0.023437500000000
   0.3125000000000000  -0.1875000000000000  -0.1875000000000000       0.011718750000000
   0.1875000000000000   0.1875000000000000   0.1875000000000000       0.003906250000000
   0.1875000000000000   0.1875000000000000   0.0625000000000000       0.011718750000000
   0.1875000000000000   0.1875000000000000  -0.0625000000000000       0.011718750000000
   0.1875000000000000   0.1875000000000000  -0.1875000000000000       0.011718750000000
   0.1875000000000000   0.0625000000000000   0.0625000000000000       0.011718750000000
   0.1875000000000000   0.0625000000000000  -0.0625000000000000       0.023437500000000
   0.1875000000000000   0.0625000000000000  -0.1875000000000000       0.023437500000000
   0.1875000000000000  -0.0625000000000000  -0.0625000000000000       0.011718750000000
   0.0625000000000000   0.0625000000000000   0.0625000000000000       0.003906250000000
   0.0625000000000000   0.0625000000000000  -0.0625000000000000       0.011718750000000
%ENDBLOCK KPOINTS_LIST

%BLOCK SYMMETRY_OPS
       1.000000000000000       0.000000000000000       0.000000000000000
       0.000000000000000       1.000000000000000       0.000000000000000
       0.000000000000000       0.000000000000000       1.000000000000000
       0.000000000000000       0.000000000000000       0.000000000000000
      -1.000000000000000      -0.000000000000000       0.000000000000001
       0.000000000000000      -1.000000000000000      -0.000000000000000
       0.000000000000000      -0.000000000000000       1.000000000000000
       0.000000000000000       0.000000000000000       0.000000000000000
      -1.000000000000000      -0.000000000000000      -0.000000000000000
       0.000000000000000       1.000000000000000       0.000000000000000
       0.000000000000000       0.000000000000000      -1.000000000000000
       0.000000000000000       0.000000000000000       0.000000000000000
       1.000000000000000       0.000000000000000      -0.000000000000001
       0.000000000000000      -1.000000000000000      -0.000000000000000
       0.000000000000000       0.000000000000000      -1.000000000000000
       0.000000000000000       0.000000000000000       0.000000000000000
       0.000000000000000       1.000000000000000      -0.000000000000000
       0.000000000000000       0.000000000000000       1.000000000000000
       1.000000000000000       0.000000000000000      -0.000000000000000
       0.000000000000000       0.000000000000000       0.000000000000000
       0.000000000000000      -1.000000000000000       0.000000000000000
       0.000000000000000       0.000000000000000      -1.000000000000000
       1.000000000000000       0.000000000000000      -0.000000000000000
       0.000000000000000       0.000000000000000       0.000000000000000
      -0.000000000000000      -1.000000000000000      -0.000000000000000
       0.000000000000000      -0.000000000000000       1.000000000000000
      -1.000000000000000      -0.000000000000000       0.000000000000000
       0.000000000000000       0.000000000000000       0.000000000000000
      -0.000000000000000       1.000000000000000       0.000000000000000
       0.000000000000000       0.000000000000000      -1.000000000000000
      -1.000000000000000      -0.000000000000000       0.000000000000000
       0.000000000000000       0.000000000000000       0.000000000000000
      -0.000000000000000       0.000000000000000       1.000000000000000
       1.000000000000000       0.000000000000000      -0.000000000000000
       0.000000000000000       1.000000000000000       0.000000000000000
       0.000000000000000       0.000000000000000       0.000000000000000
       0.000000000000000       0.000000000000000      -1.000000000000000
      -1.000000000000000      -0.000000000000000       0.000000000000000
       0.000000000000000       1.000000000000000       0.000000000000000
       0.000000000000000       0.000000000000000       0.000000000000000
      -0.000000000000000      -0.000000000000000      -1.000000000000000
       1.000000000000000       0.000000000000000      -0.000000000000000
       0.000000000000000      -1.000000000000000       0.000000000000000
       0.000000000000000       0.000000000000000       0.000000000000000
       0.000000000000000      -0.000000000000000       1.000000000000000
      -1.000000000000000      -0.000000000000000       0.000000000000000
       0.000000000000000      -1.000000000000000      -0.000000000000000
       0.000000000000000       0.000000000000000       0.000000000000000
      -0.000000000000000       1.000000000000000      -0.000000000000000
       1.000000000000000       0.000000000000000      -0.000000000000000
       0.000000000000000       0.000000000000000      -1.000000000000000
       0.250000000000000       0.250000000000000       0.250000000000000
       0.000000000000000      -1.000000000000000      -0.000000000000001
      -1.000000000000000      -0.000000000000000       0.000000000000000
       0.000000000000000       0.000000000000000      -1.000000000000000
       0.250000000000000       0.250000000000000       0.250000000000000
      -0.000000000000000      -1.000000000000000       0.000000000000000
       1.000000000000000       0.000000000000000      -0.000000000000000
       0.000000000000000      -0.000000000000000       1.000000000000000
       0.250000000000000       0.250000000000000       0.250000000000000
       0.000000000000000       1.000000000000000       0.000000000000001
      -1.000000000000000      -0.000000000000000       0.000000000000000
       0.000000000000000      -0.000000000000000       1.000000000000000
       0.250000000000000       0.250000000000000       0.250000000000000
       1.000000000000000       0.000000000000001      -0.000000000000000
       0.000000000000000       0.000000000000000      -1.000000000000000
       0.000000000000000       1.000000000000000       0.000000000000000
       0.250000000000000       0.250000000000000       0.250000000000000
      -1.000000000000000       0.000000000000000       0.000000000000000
       0.000000000000000      -0.000000000000000       1.000000000000000
       0.000000000000000       1.000000000000000       0.000000000000000
       0.250000000000000       0.250000000000000       0.250000000000000
      -1.000000000000000      -0.000000000000001       0.000000000000000
       0.000000000000000       0.000000000000000      -1.000000000000000
       0.000000000000000      -1.000000000000000      -0.000000000000000
       0.250000000000000       0.250000000000000       0.250000000000000
       1.000000000000000      -0.000000000000000      -0.000000000000000
       0.000000000000000      -0.000000000000000       1.000000000000000
       0.000000000000000      -1.000000000000000      -0.000000000000000
       0.250000000000000       0.250000000000000       0.250000000000000
       0.000000000000000      -0.000000000000000      -1.000000000000000
       0.000000000000000       1.000000000000000       0.000000000000000
       1.000000000000000       0.000000000000000      -0.000000000000000
       0.250000000000000       0.250000000000000       0.250000000000000
       0.000000000000000       0.000000000000000       1.000000000000000
       0.000000000000000      -1.000000000000000      -0.000000000000000
       1.000000000000000       0.000000000000000      -0.000000000000000
       0.250000000000000       0.250000000000000       0.250000000000000
      -0.000000000000000      -0.000000000000000       1.000000000000000
       0.000000000000000       1.000000000000000       0.000000000000000
      -1.000000000000000      -0.000000000000000       0.000000000000000
       0.250000000000000       0.250000000000000       0.250000000000000
      -0.000000000000000       0.000000000000000      -1.000000000000000
       0.000000000000000      -1.000000000000000      -0.000000000000000
      -1.000000000000000      -0.000000000000000       0.000000000000000
       0.250000000000000       0.250000000000000       0.250000000000000
      -1.000000000000000      -0.000000000000000      -0.000000000000000
       0.000000000000000      -1.000000000000000      -0.000000000000000
       0.000000000000000       0.000000000000000      -1.000000000000000
       0.250000000000000       0.250000000000000       0.250000000000000
       1.000000000000000       0.000000000000000      -0.000000000000001
       0.000000000000000       1.000000000000000       0.000000000000000
       0.000000000000000       0.000000000000000      -1.000000000000000
       0.250000000000000       0.250000000000000       0.250000000000000
       1.000000000000000       0.000000000000000       0.000000000000000
       0.000000000000000      -1.000000000000000      -0.000000000000000
       0.000000000000000      -0.000000000000000       1.000000000000000
       0.250000000000000       0.250000000000000       0.250000000000000
      -1.000000000000000      -0.000000000000000       0.000000000000001
       0.000000000000000       1.000000000000000       0.000000000000000
       0.000000000000000      -0.000000000000000       1.000000000000000
       0.250000000000000       0.250000000000000       0.250000000000000
      -0.000000000000000      -1.000000000000000       0.000000000000000
       0.000000000000000       0.000000000000000      -1.000000000000000
      -1.000000000000000      -0.000000000000000       0.000000000000000
       0.250000000000000       0.250000000000000       0.250000000000000
      -0.000000000000000       1.000000000000000      -0.000000000000000
       0.000000000000000       0.000000000000000       1.000000000000000
      -1.000000000000000      -0.000000000000000       0.000000000000000
       0.250000000000000       0.250000000000000       0.250000000000000
       0.000000000000000       1.000000000000000       0.000000000000000
       0.000000000000000       0.000000000000000      -1.000000000000000
       1.000000000000000       0.000000000000000      -0.000000000000000
       0.250000000000000       0.250000000000000       0.250000000000000
       0.000000000000000      -1.000000000000000      -0.000000000000000
       0.000000000000000      -0.000000000000000       1.000000000000000
       1.000000000000000       0.000000000000000      -0.000000000000000
       0.250000000000000       0.250000000000000       0.250000000000000
       0.000000000000000      -0.000000000000000      -1.000000000000000
      -1.000000000000000      -0.000000000000000       0.000000000000000
       0.000000000000000      -1.000000000000000      -0.000000000000000
       0.250000000000000       0.250000000000000       0.250000000000000
      -0.000000000000000      -0.000000000000000       1.000000000000000
       1.000000000000000       0.000000000000000      -0.000000000000000
       0.000000000000000      -1.000000000000000      -0.000000000000000
       0.250000000000000       0.250000000000000       0.250000000000000
       0.000000000000000       0.000000000000000       1.000000000000000
      -1.000000000000000      -0.000000000000000       0.000000000000000
       0.000000000000000       1.000000000000000       0.000000000000000
       0.250000000000000       0.250000000000000       0.250000000000000
      -0.000000000000000       0.000000000000000      -1.000000000000000
       1.000000000000000       0.000000000000000      -0.000000000000000
       0.000000000000000       1.000000000000000       0.000000000000000
       0.250000000000000       0.250000000000000       0.250000000000000
       0.000000000000000      -1.000000000000000       0.000000000000000
      -1.000000000000000      -0.000000000000000       0.000000000000000
       0.000000000000000      -0.000000000000000       1.000000000000000
       0.000000000000000       0.000000000000000       0.000000000000000
      -0.000000000000000       1.000000000000000       0.000000000000001
       1.000000000000000       0.000000000000000      -0.000000000000000
       0.000000000000000       0.000000000000000       1.000000000000000
       0.000000000000000       0.000000000000000       0.000000000000000
       0.000000000000000       1.000000000000000      -0.000000000000000
      -1.000000000000000      -0.000000000000000       0.000000000000000
       0.000000000000000       0.000000000000000      -1.000000000000000
       0.000000000000000       0.000000000000000       0.000000000000000
      -0.000000000000000      -1.000000000000000      -0.000000000000001
       1.000000000000000       0.000000000000000      -0.000000000000000
       0.000000000000000       0.000000000000000      -1.000000000000000
       0.000000000000000       0.000000000000000       0.000000000000000
      -1.000000000000000      -0.000000000000001       0.000000000000000
       0.000000000000000      -0.000000000000000       1.000000000000000
       0.000000000000000      -1.000000000000000      -0.000000000000000
       0.000000000000000       0.000000000000000       0.000000000000000
       1.000000000000000      -0.000000000000000      -0.000000000000000
       0.000000000000000       0.000000000000000      -1.000000000000000
       0.000000000000000      -1.000000000000000       0.000000000000000
       0.000000000000000       0.000000000000000       0.000000000000000
       1.000000000000000       0.000000000000001      -0.000000000000000
       0.000000000000000      -0.000000000000000       1.000000000000000
       0.000000000000000       1.000000000000000       0.000000000000000
       0.000000000000000       0.000000000000000       0.000000000000000
      -1.000000000000000       0.000000000000000       0.000000000000000
       0.000000000000000       0.000000000000000      -1.000000000000000
       0.000000000000000       1.000000000000000       0.000000000000000
       0.000000000000000       0.000000000000000       0.000000000000000
      -0.000000000000000       0.000000000000000       1.000000000000000
       0.000000000000000      -1.000000000000000      -0.000000000000000
      -1.000000000000000      -0.000000000000000       0.000000000000000
       0.000000000000000       0.000000000000000       0.000000000000000
      -0.000000000000000      -0.000000000000000      -1.000000000000000
       0.000000000000000       1.000000000000000       0.000000000000000
      -1.000000000000000      -0.000000000000000       0.000000000000000
       0.000000000000000       0.000000000000000       0.000000000000000
       0.000000000000000       0.000000000000000      -1.000000000000000
       0.000000000000000      -1.000000000000000      -0.000000000000000
       1.000000000000000       0.000000000000000      -0.000000000000000
       0.000000000000000       0.000000000000000       0.000000000000000
       0.000000000000000      -0.000000000000000       1.000000000000000
       0.000000000000000       1.000000000000000       0.000000000000000
       1.000000000000000       0.000000000000000      -0.000000000000000
       0.000000000000000       0.000000000000000       0.000000000000000
%ENDBLOCK SYMMETRY_OPS

FIX_COM : false
%BLOCK IONIC_CONSTRAINTS
%ENDBLOCK IONIC_CONSTRAINTS

%BLOCK EXTERNAL_EFIELD
    0.0000000000     0.0000000000     0.0000000000 
%ENDBLOCK EXTERNAL_EFIELD

%BLOCK EXTERNAL_PRESSURE
    0.0000000000    0.0000000000    0.0000000000
                    0.0000000000    0.0000000000
                                    0.0000000000
%ENDBLOCK EXTERNAL_PRESSURE

%BLOCK SPECIES_MASS
      Si     28.0849990845
%ENDBLOCK SPECIES_MASS

%BLOCK SPECIES_POT
      Si  3|1.8|3.6|5|7|30UU:31UU:32UU[]
%ENDBLOCK SPECIES_POT

%BLOCK SPECIES_LCAO_STATES
      Si         2
%ENDBLOCK SPECIES_LCAO_STATES

