%BLOCK LATTICE_CART
       3.962938073894741       0.000000000000000       0.000000000000000
       0.000000000000000       2.802220385473321       0.000000000000000
       0.000000000000000       0.000000000000000      10.802220385473300
%ENDBLOCK LATTICE_CART

%BLOCK POSITIONS_FRAC
 Pd   1.0000000000000000   1.0000000000000000   0.0000000000000000
 Pd   0.0000000000000000   0.0000000000000000   0.2594115177692280
 Pd   0.5000000000000001   0.4999999999999999   0.1297057588846140
%ENDBLOCK POSITIONS_FRAC

%BLOCK KPOINTS_LIST
   0.3333333333333333   0.3750000000000000   0.0000000000000000       0.166666666666667
   0.3333333333333333   0.1250000000000000   0.0000000000000000       0.166666666666667
   0.3333333333333333  -0.1250000000000000   0.0000000000000000       0.166666666666667
   0.3333333333333333  -0.3750000000000000   0.0000000000000000       0.166666666666667
   0.0000000000000000   0.3750000000000000   0.0000000000000000       0.166666666666667
   0.0000000000000000   0.1250000000000000   0.0000000000000000       0.166666666666667
%ENDBLOCK KPOINTS_LIST

FIX_ALL_CELL : true

FIX_COM : false
%BLOCK IONIC_CONSTRAINTS
       1      Pd       1   1.0000000000000000   0.0000000000000000   0.0000000000000000
       2      Pd       1   0.0000000000000000   1.0000000000000000   0.0000000000000000
       3      Pd       1   0.0000000000000000   0.0000000000000000   1.0000000000000000
       4      Pd       3   1.0000000000000000   0.0000000000000000   0.0000000000000000
       5      Pd       3   0.0000000000000000   1.0000000000000000   0.0000000000000000
       6      Pd       3   0.0000000000000000   0.0000000000000000   1.0000000000000000
%ENDBLOCK IONIC_CONSTRAINTS

%BLOCK EXTERNAL_EFIELD
    0.0000000000     0.0000000000     0.0000000000 
%ENDBLOCK EXTERNAL_EFIELD

%BLOCK EXTERNAL_PRESSURE
    0.0000000000    0.0000000000    0.0000000000
                    0.0000000000    0.0000000000
                                    0.0000000000
%ENDBLOCK EXTERNAL_PRESSURE

%BLOCK SPECIES_MASS
      Pd    106.4000015259
%ENDBLOCK SPECIES_MASS

%BLOCK SPECIES_POT
      Pd  3|1.6|15|18.8|20.6|40U:50UU:41UU:42UU{5s0.5}(qc=7)[]
%ENDBLOCK SPECIES_POT

%BLOCK SPECIES_LCAO_STATES
      Pd         5
%ENDBLOCK SPECIES_LCAO_STATES

