%BLOCK LATTICE_CART
       0.000000000000000       2.535000000000000       2.535000000000000
       2.535000000000000      -0.000000000000001       2.535000000000000
       2.535000000000000       2.534999999999999      -0.000000000000000
%ENDBLOCK LATTICE_CART

%BLOCK POSITIONS_FRAC
  O   0.2500000000000001   0.2500000000000000   0.2499999999999999
  O  -0.2499999999999999  -0.2499999999999999   0.7499999999999998
 Zr   0.0000000000000000   0.0000000000000000   0.0000000000000000
%ENDBLOCK POSITIONS_FRAC

%BLOCK SPECTRAL_KPOINT_LIST
   0.5000000000000000   0.2500000000000000   0.7500000000000000       0.043478260869565
   0.5000000000000000   0.2777777777777778   0.7222222222222222       0.021739130434783
   0.5000000000000000   0.3055555555555556   0.6944444444444444       0.021739130434783
   0.5000000000000000   0.3333333333333333   0.6666666666666666       0.021739130434783
   0.5000000000000000   0.3611111111111111   0.6388888888888888       0.021739130434783
   0.5000000000000000   0.3888888888888889   0.6111111111111112       0.021739130434783
   0.5000000000000000   0.4166666666666666   0.5833333333333334       0.021739130434783
   0.5000000000000000   0.4444444444444444   0.5555555555555556       0.021739130434783
   0.5000000000000000   0.4722222222222222   0.5277777777777778       0.021739130434783
   0.5000000000000000   0.5000000000000000   0.5000000000000000       0.021739130434783
   0.4545454545454545   0.4545454545454545   0.4545454545454545       0.021739130434783
   0.4090909090909091   0.4090909090909091   0.4090909090909091       0.021739130434783
   0.3636363636363637   0.3636363636363637   0.3636363636363637       0.021739130434783
   0.3181818181818182   0.3181818181818182   0.3181818181818182       0.021739130434783
   0.2727272727272727   0.2727272727272727   0.2727272727272727       0.021739130434783
   0.2272727272727273   0.2272727272727273   0.2272727272727273       0.021739130434783
   0.1818181818181818   0.1818181818181818   0.1818181818181818       0.021739130434783
   0.1363636363636364   0.1363636363636364   0.1363636363636364       0.021739130434783
   0.0909090909090909   0.0909090909090909   0.0909090909090909       0.021739130434783
   0.0454545454545454   0.0454545454545454   0.0454545454545454       0.021739130434783
   0.0000000000000000   0.0000000000000000   0.0000000000000000       0.021739130434783
   0.0384615384615385   0.0000000000000000   0.0384615384615385       0.021739130434783
   0.0769230769230769   0.0000000000000000   0.0769230769230769       0.021739130434783
   0.1153846153846154   0.0000000000000000   0.1153846153846154       0.021739130434783
   0.1538461538461539   0.0000000000000000   0.1538461538461539       0.021739130434783
   0.1923076923076923   0.0000000000000000   0.1923076923076923       0.021739130434783
   0.2307692307692308   0.0000000000000000   0.2307692307692308       0.021739130434783
   0.2692307692307693   0.0000000000000000   0.2692307692307693       0.021739130434783
   0.3076923076923077   0.0000000000000000   0.3076923076923077       0.021739130434783
   0.3461538461538462   0.0000000000000000   0.3461538461538462       0.021739130434783
   0.3846153846153846   0.0000000000000000   0.3846153846153846       0.021739130434783
   0.4230769230769231   0.0000000000000000   0.4230769230769231       0.021739130434783
   0.4615384615384616   0.0000000000000000   0.4615384615384616       0.021739130434783
   0.5000000000000000   0.0000000000000000   0.5000000000000000       0.021739130434783
   0.5000000000000000   0.0357142857142857   0.5357142857142857       0.021739130434783
   0.5000000000000000   0.0714285714285714   0.5714285714285714       0.021739130434783
   0.5000000000000000   0.1071428571428571   0.6071428571428571       0.021739130434783
   0.5000000000000000   0.1428571428571429   0.6428571428571428       0.021739130434783
   0.5000000000000000   0.1785714285714286   0.6785714285714286       0.021739130434783
   0.5000000000000000   0.2142857142857143   0.7142857142857143       0.021739130434783
   0.4750000000000000   0.2750000000000000   0.7500000000000000       0.021739130434783
   0.4500000000000000   0.3000000000000000   0.7500000000000000       0.021739130434783
   0.4250000000000000   0.3250000000000000   0.7500000000000000       0.021739130434783
   0.4000000000000000   0.3500000000000000   0.7500000000000000       0.021739130434783
   0.3750000000000000   0.3750000000000000   0.7500000000000000       0.021739130434783
%ENDBLOCK SPECTRAL_KPOINT_LIST

%BLOCK KPOINTS_LIST
   0.4444444444444444   0.4444444444444444   0.4444444444444444       0.010973936899863
   0.4444444444444444   0.4444444444444444   0.3333333333333334       0.032921810699588
   0.4444444444444444   0.4444444444444444   0.2222222222222222       0.032921810699588
   0.4444444444444444   0.4444444444444444   0.1111111111111112       0.032921810699588
   0.4444444444444444   0.4444444444444444   0.0000000000000000       0.008230452674897
   0.4444444444444444   0.4444444444444444  -0.1111111111111111       0.016460905349794
   0.4444444444444444   0.4444444444444444  -0.2222222222222222       0.032921810699588
   0.4444444444444444   0.4444444444444444  -0.3333333333333333       0.032921810699588
   0.4444444444444444   0.4444444444444444  -0.4444444444444444       0.032921810699588
   0.4444444444444444   0.3333333333333334   0.3333333333333334       0.032921810699588
   0.4444444444444444   0.3333333333333334   0.2222222222222222       0.065843621399177
   0.4444444444444444   0.3333333333333334   0.1111111111111112       0.032921810699588
   0.4444444444444444   0.3333333333333334  -0.1111111111111111       0.032921810699588
   0.4444444444444444   0.3333333333333334  -0.2222222222222222       0.032921810699588
   0.4444444444444444   0.3333333333333334  -0.3333333333333333       0.065843621399177
   0.4444444444444444   0.3333333333333334  -0.4444444444444444       0.065843621399177
   0.4444444444444444   0.2222222222222222   0.2222222222222222       0.016460905349794
   0.4444444444444444   0.2222222222222222  -0.1111111111111111       0.065843621399177
   0.4444444444444444   0.2222222222222222  -0.2222222222222222       0.032921810699588
   0.4444444444444444  -0.2222222222222222  -0.2222222222222222       0.032921810699588
   0.4444444444444444  -0.2222222222222222  -0.3333333333333333       0.032921810699588
   0.3333333333333334   0.3333333333333334   0.3333333333333334       0.010973936899863
   0.3333333333333334   0.3333333333333334   0.2222222222222222       0.032921810699588
   0.3333333333333334   0.3333333333333334   0.1111111111111112       0.032921810699588
   0.3333333333333334   0.3333333333333334   0.0000000000000000       0.008230452674897
   0.3333333333333334   0.3333333333333334  -0.3333333333333333       0.016460905349794
   0.3333333333333334   0.2222222222222222   0.2222222222222222       0.032921810699588
   0.3333333333333334   0.2222222222222222   0.1111111111111112       0.032921810699588
   0.2222222222222222   0.2222222222222222   0.2222222222222222       0.010973936899863
   0.2222222222222222   0.2222222222222222   0.1111111111111112       0.032921810699588
   0.2222222222222222   0.2222222222222222   0.0000000000000000       0.008230452674897
   0.2222222222222222   0.1111111111111112   0.1111111111111112       0.016460905349794
   0.1111111111111112   0.1111111111111112   0.1111111111111112       0.010973936899863
   0.1111111111111112   0.1111111111111112   0.0000000000000000       0.008230452674897
   0.0000000000000000   0.0000000000000000   0.0000000000000000       0.001371742112483
%ENDBLOCK KPOINTS_LIST

FIX_COM : false
%BLOCK IONIC_CONSTRAINTS
%ENDBLOCK IONIC_CONSTRAINTS

%BLOCK EXTERNAL_EFIELD
    0.0000000000     0.0000000000     0.0000000000 
%ENDBLOCK EXTERNAL_EFIELD

%BLOCK EXTERNAL_PRESSURE
    0.0000000000    0.0000000000    0.0000000000
                    0.0000000000    0.0000000000
                                    0.0000000000
%ENDBLOCK EXTERNAL_PRESSURE

%BLOCK SPECIES_MASS
       O     15.9989995956
      Zr     91.2200012207
%ENDBLOCK SPECIES_MASS

%BLOCK SPECIES_POT
       O  2|1.1|14|18|21|20UU:21UU(qc=7)[]
      Zr  3|2.1|7|8.5|10|40U:50UU:41UU:42UU[]
%ENDBLOCK SPECIES_POT

%BLOCK SPECIES_LCAO_STATES
       O         2
      Zr         5
%ENDBLOCK SPECIES_LCAO_STATES

