%BLOCK LATTICE_CART
       5.653150000000003       0.000000000000000       0.000000000000000
       0.000000000000000       3.997380700064732       0.000000000000000
       0.000000000000000       0.000000000000000      17.994761400129466
%ENDBLOCK LATTICE_CART

%BLOCK POSITIONS_FRAC
 Ga   0.0000000000000000  -0.0000000000000000  -0.0000000000000001
 Ga   0.0000000000000001   0.9999999999999998   0.2221413560968901
 Ga   0.0000000000000001   0.0000000000000000   0.4442827121937804
 Ga   0.4999999999999999   0.4999999999999996   0.3332120341453353
 Ga   0.4999999999999999   0.4999999999999999   0.1110706780484451
 As   0.2500000000000000   0.0000000000000000   0.1110706780484451
 As   0.2500000000000002   0.9999999999999996   0.3332120341453353
 As   0.7500000000000002   0.4999999999999998   0.2221413560968902
 As   0.7499999999999999   0.4999999999999998  -0.0000000000000001
 As   0.7500000000000002   0.4999999999999997   0.4442827121937804
%ENDBLOCK POSITIONS_FRAC

%BLOCK KPOINTS_LIST
   0.2500000000000000   0.3333333333333333   0.0000000000000000       0.333333333333333
   0.2500000000000000   0.0000000000000000   0.0000000000000000       0.333333333333333
   0.2500000000000000  -0.3333333333333333   0.0000000000000000       0.333333333333333
%ENDBLOCK KPOINTS_LIST

%BLOCK CELL_CONSTRAINTS
       1       2       3
       4       5       6
%ENDBLOCK CELL_CONSTRAINTS

FIX_COM : false
%BLOCK IONIC_CONSTRAINTS
%ENDBLOCK IONIC_CONSTRAINTS

%BLOCK EXTERNAL_EFIELD
    0.0000000000     0.0000000000     0.0000000000 
%ENDBLOCK EXTERNAL_EFIELD

%BLOCK SPECIES_MASS
      Ga     69.7350006104
      As     74.9219970703
%ENDBLOCK SPECIES_MASS

%BLOCK SPECIES_POT
      Ga  Ga_00PBE.usp
      As  As_00PBE.usp
%ENDBLOCK SPECIES_POT

%BLOCK SPECIES_LCAO_STATES
      Ga         4
      As         3
%ENDBLOCK SPECIES_LCAO_STATES

